94
Generated by alignment script
Au     -1.44200000     -2.49700000     -7.06400000
Au     -1.44200000      2.49700000     -7.06400000
Au      1.44200000     -2.49700000     -7.06400000
Au      1.44200000      2.49700000     -7.06400000
Au      2.88400000      0.00000000     -7.06400000
Au     -2.88400000      0.00000000     -7.06400000
Au      0.00000000      0.00000000     -7.06400000
Au     -5.76800000     -1.66500000     -4.70900000
Au      1.44200000     -4.16200000     -4.70900000
Au      1.44200000      5.82700000     -4.70900000
Au      2.88400000     -1.66500000     -4.70900000
Au      1.44200000      0.83200000     -4.70900000
Au     -1.44200000      0.83200000     -4.70900000
Au      5.76800000     -1.66500000     -4.70900000
Au     -4.32600000     -4.16200000     -4.70900000
Au     -1.44200000     -4.16200000     -4.70900000
Au      2.88400000      3.33000000     -4.70900000
Au     -2.88400000     -1.66500000     -4.70900000
Au     -1.44200000      5.82700000     -4.70900000
Au      0.00000000      3.33000000     -4.70900000
Au     -4.32600000      0.83200000     -4.70900000
Au      0.00000000     -1.66500000     -4.70900000
Au     -2.88400000      3.33000000     -4.70900000
Au      4.32600000     -4.16200000     -4.70900000
Au      4.32600000      0.83200000     -4.70900000
Au     -1.44200000     -0.83200000     -2.35500000
Au      0.00000000      1.66500000     -2.35500000
Au      1.44200000     -0.83200000     -2.35500000
Au      0.00000000      0.00000000      0.00000000
H      -0.83900000      2.52800000      0.33300000
H       0.93500000      2.38800000      0.38600000
C       0.00000000      2.01300000      0.78700000
C      -0.03300000      2.05000000      2.24000000
H      -2.02000000      2.86900000      2.35900000
H       1.93700000      1.22100000      2.44700000
C      -1.15400000      2.53300000      2.92000000
C       1.07500000      1.61700000      2.97400000
C      -1.14800000      2.61800000      4.29700000
C       1.06600000      1.66900000      4.34700000
H      -2.00800000      3.04200000      4.80200000
H       1.92100000      1.28900000      4.89400000
C      -0.04000000      2.18600000      5.03400000
C      -0.03000000      2.24800000      6.49400000
H       2.12200000      2.30900000      6.66200000
H      -2.17800000      2.23600000      6.71300000
C       1.17900000      2.27400000      7.19600000
C      -1.22200000      2.26000000      7.22300000
C       1.19700000      2.25800000      8.57400000
C      -1.20400000      2.27700000      8.60100000
H       2.15300000      2.23200000      9.08500000
H      -2.14600000      2.31500000      9.13500000
C       0.00500000      2.25000000      9.30400000
C       0.01600000      2.18900000     10.76300000
H      -1.94600000      1.29400000     10.90600000
H       1.98600000      3.04300000     10.99300000
C      -1.09000000      1.67400000     11.45100000
C       1.12500000      2.62000000     11.49800000
C      -1.09700000      1.62100000     12.82500000
C       1.13400000      2.53500000     12.87500000
H      -1.95900000      1.22600000     13.35300000
H       2.00000000      2.87000000     13.43500000
C       0.01300000      2.05300000     13.55700000
C      -0.01700000      2.01400000     15.01000000
H      -0.95400000      2.38300000     15.41300000
H       0.82000000      2.53300000     15.46300000
Au      0.00000000     -0.00000000     15.79400000
Au      1.44200000     -0.83200000     18.14800000
Au     -1.44200000     -0.83200000     18.14800000
Au      0.00000000      1.66500000     18.14800000
Au     -2.88400000      3.33000000     20.50300000
Au     -1.44200000      0.83200000     20.50300000
Au     -0.00000000     -1.66500000     20.50300000
Au      0.00000000      3.33000000     20.50300000
Au     -4.32600000     -4.16200000     20.50300000
Au      4.32600000      0.83200000     20.50300000
Au      4.32600000     -4.16200000     20.50300000
Au     -4.32600000      0.83200000     20.50300000
Au     -2.88400000     -1.66500000     20.50300000
Au     -1.44200000      5.82700000     20.50300000
Au      2.88400000      3.33000000     20.50300000
Au      2.88400000     -1.66500000     20.50300000
Au     -1.44200000     -4.16200000     20.50300000
Au      5.76800000     -1.66500000     20.50300000
Au     -5.76800000     -1.66500000     20.50300000
Au      1.44200000      5.82700000     20.50300000
Au      1.44200000      0.83200000     20.50300000
Au      1.44200000     -4.16200000     20.50300000
Au      2.88400000      0.00000000     22.85700000
Au     -2.88400000      0.00000000     22.85700000
Au     -1.44200000      2.49700000     22.85700000
Au     -1.44200000     -2.49700000     22.85700000
Au      0.00000000      0.00000000     22.85700000
Au      1.44200000     -2.49700000     22.85700000
Au      1.44200000      2.49700000     22.85700000
