44
 energy: -82.492537662027 gnorm: 0.000889123601 xtb: 6.7.0 (08769fc)
Au           1.44188000000002       -0.83247000000001       -2.35457998000000
Au           0.00000000000003        1.66494000000000       -2.35457998000000
Au          -1.44187999999996       -0.83247000000005       -2.35457998000000
Au           0.00000000000003        0.00000000000015        0.00000000000011
C           -0.02977956615137        2.24829270098663        6.49354351251322
C            0.00506372513728        2.24963403277317        9.30353918222431
C           -0.04020109797265        2.18628829572848        5.03445068832005
C            0.01622168151214        2.18889821643745       10.76264861557449
C            1.17941549636430        2.27445661044666        7.19602967328688
C            1.19739625305029        2.25843002467677        8.57407071169427
C           -1.22210221060386        2.26011828883173        7.22298884802528
C           -1.20409817812538        2.27734768864007        8.60107975901215
C            1.06604151127767        1.66935350657687        4.34714987084201
C            1.12502464785776        2.61993901880164       11.49849741727145
C           -1.14758198552400        2.61826011860990        4.29708947601189
C           -1.08988412311123        1.67364689144625       11.45139998702839
C           -0.03348319811825        2.05029582928131        2.23997453081359
C            0.01322326800198        2.05290153639704       13.55701916247736
C            1.07534003563380        1.61669193233460        2.97376339777527
C            1.13357090215678        2.53469491079593       12.87528572143918
C           -1.15435427644088        2.53290757852970        2.92020717497955
C           -1.09726704264137        1.62072396347607       12.82482346464642
C            0.00007862121003        2.01313965634779        0.78727192872256
C           -0.01748463070821        2.01440309102740       15.00954530715625
H            2.12179042662351        2.30938661086012        6.66216298489207
H            2.15307320294685        2.23239004366088        9.08452402811163
H           -2.17781247588762        2.23556589734922        6.71250618863027
H           -2.14634886369498        2.31450527649989        9.13504371000085
H            1.92053876833380        1.28858044780137        4.89354758402887
H            1.98551973416631        3.04273394330602       10.99285897934768
H           -2.00828116797171        3.04205846612699        4.80154971542847
H           -1.94569485634477        1.29431384169580       10.90605608143156
H            1.93703955239538        1.22096129126961        2.44720882511579
H            1.99987211218729        2.87016174512079       13.43516215812018
H           -2.01952176872367        2.86946142047730        2.35922181504976
H           -1.95869918272372        1.22601427263184       13.35259046435242
H            0.93510839316319        2.38822695275396        0.38644339054100
H           -0.83926649920200        2.52761555062088        0.33288365507024
H            0.81974520024963        2.53324599933502       15.46281917752568
H           -0.95402831030550        2.38260683947862       15.41308139662831
Au           0.00000000000006       -0.00000000000027       15.79353167000042
Au           0.00000000000064        1.66494000000103       18.14811166000041
Au           1.44188000000047       -0.83246000000024       18.14811165999976
Au          -1.44188000000079       -0.83246000000002       18.14811166000000
