136
AtomType X Y Z
Au  5.76751697  3.32987696  1.17728948
Au  1.44187899  5.82728496  1.17728948
Au  4.32563794  5.82728496  1.17728948
Au  1.44187899  0.83246895  1.17728948
Au  7.20939596  5.82728496  1.17728948
Au  0  3.32987696  1.17728948
Au  8.65127000  3.32987696  1.17728948
Au  2.88375798  3.32987696  1.17728948
Au  7.20939596  0.83246895  1.17728948
Au  2.88375798  8.32469200  1.17728948
Au  0  8.32469200  1.17728948
Au  8.65127000  8.32469200  1.17728948
Au  5.76751697  8.32469200  1.17728948
Au  4.32563794  0.83246895  1.17728948
Au  2.88375798  1.66493800  3.53186845
Au  5.76751697  1.66493800  3.53186845
Au  7.20939596  9.15716197  3.53186845
Au  5.76751697  6.65975395  3.53186845
Au  0  1.66493800  3.53186845
Au  8.65127000  1.66493800  3.53186845
Au  0  6.65975395  3.53186845
Au  8.65127000  6.65975395  3.53186845
Au  4.32563794  9.15716197  3.53186845
Au  2.88375798  6.65975395  3.53186845
Au  7.20939596  4.16234599  3.53186845
Au  1.44187899  4.16234599  3.53186845
Au  4.32563794  4.16234599  3.53186845
Au  1.44187899  9.15716197  3.53186845
Au  4.32563794  2.49740800  5.88644748
Au  2.88375798  0  5.88644748
Au  2.88375798  9.98963000  5.88644748
Au  1.44187899  2.49740800  5.88644748
Au  4.32563794  7.49222299  5.88644748
Au  7.20939596  7.49222299  5.88644748
Au  5.76751697  0  5.88644748
Au  5.76751697  9.98963000  5.88644748
Au  5.76751697  4.99481499  5.88644748
Au  0  4.99481499  5.88644748
Au  8.65127000  4.99481499  5.88644748
Au  7.20939596  2.49740800  5.88644748
Au  0  0  5.88644748
Au  0  9.98963000  5.88644748
Au  8.65127000  0  5.88644748
Au  8.65127000  9.98963000  5.88644748
Au  2.88375798  4.99481499  5.88644748
Au  1.44187899  7.49222299  5.88644748
Au  2.88375798  3.32987696  8.24102644
Au  4.32563794  5.82728496  8.24102644
Au  5.76751697  3.32987696  8.24102644
Au  4.32563794  4.16234599  10.59560542
Au  4.32563794  4.16234599  26.38913709
Au  5.76751697  3.32987696  28.74371607
Au  4.32563794  5.82728496  28.74371607
Au  2.88375798  3.32987696  28.74371607
Au  2.88375798  9.98963000  31.09829502
Au  1.44187899  2.49740800  31.09829502
Au  4.32563794  7.49222299  31.09829502
Au  7.20939596  7.49222299  31.09829502
Au  5.76751697  0  31.09829502
Au  5.76751697  9.98963000  31.09829502
Au  5.76751697  4.99481499  31.09829502
Au  0  4.99481499  31.09829502
Au  8.65127000  4.99481499  31.09829502
Au  7.20939596  2.49740800  31.09829502
Au  0  0  31.09829502
Au  0  9.98963000  31.09829502
Au  8.65127000  0  31.09829502
Au  8.65127000  9.98963000  31.09829502
Au  2.88375798  4.99481499  31.09829502
Au  1.44187899  7.49222299  31.09829502
Au  4.32563794  2.49740800  31.09829502
Au  2.88375798  0  31.09829502
Au  1.44187899  4.16234599  33.45287405
Au  4.32563794  4.16234599  33.45287405
Au  2.88375798  1.66493800  33.45287405
Au  1.44187899  9.15716197  33.45287405
Au  5.76751697  1.66493800  33.45287405
Au  7.20939596  9.15716197  33.45287405
Au  5.76751697  6.65975395  33.45287405
Au  0  1.66493800  33.45287405
Au  8.65127000  1.66493800  33.45287405
Au  0  6.65975395  33.45287405
Au  8.65127000  6.65975395  33.45287405
Au  4.32563794  9.15716197  33.45287405
Au  2.88375798  6.65975395  33.45287405
Au  7.20939596  4.16234599  33.45287405
Au  8.65127000  8.32469200  35.80745303
Au  5.76751697  8.32469200  35.80745303
Au  4.32563794  0.83246895  35.80745303
Au  4.32563794  5.82728496  35.80745303
Au  5.76751697  3.32987696  35.80745303
Au  1.44187899  0.83246895  35.80745303
Au  7.20939596  5.82728496  35.80745303
Au  0  3.32987696  35.80745303
Au  8.65127000  3.32987696  35.80745303
Au  2.88375798  3.32987696  35.80745303
Au  1.44187899  5.82728496  35.80745303
Au  7.20939596  0.83246895  35.80745303
Au  2.88375798  8.32469200  35.80745303
Au  0  8.32469200  35.80745303
H  3.48663794  6.69034599  10.92860542
H  5.26063794  6.55034599  10.98160542
C  4.32563794  6.17534599  11.38260542
C  4.29263793  6.21234599  12.83560542
H  2.30563794  7.03134599  12.95460542
H  6.26263794  5.38334599  13.04260542
C  3.17163794  6.69534598  13.51560542
C  5.40063794  5.77934599  13.56960542
C  3.17763794  6.78034599  14.89260542
C  5.39163793  5.83134599  14.94260542
H  2.31763794  7.20434599  15.39760542
H  6.24663794  5.45134599  15.48960542
C  4.28563793  6.34834599  15.62960542
C  4.29563793  6.41034599  17.08960542
H  6.44763793  6.47134599  17.25760542
H  2.14763794  6.39834599  17.30860542
C  5.50463794  6.43634599  17.79160542
C  3.10363794  6.42234599  17.81860542
C  5.52263794  6.42034599  19.16960542
C  3.12163794  6.43934599  19.19660542
H  6.47863794  6.39434599  19.68060542
H  2.17963794  6.47734598  19.73060542
C  4.33063793  6.41234599  19.89960542
C  4.34163794  6.35134599  21.35860542
H  2.37963794  5.45634599  21.50160542
H  6.31163793  7.20534599  21.58860542
C  3.23563794  5.83634598  22.04660542
C  5.45063794  6.78234599  22.09360542
C  3.22863794  5.78334599  23.42060542
C  5.45963794  6.69734599  23.47060542
H  2.36663793  5.38834599  23.94860541
H  6.32563794  7.03234599  24.03060542
C  4.33863793  6.21534599  24.15260542
C  4.30863793  6.17634598  25.60560542
H  3.37163794  6.54534599  26.00860542
H  5.14563794  6.69534598  26.05860541
