AtomType X Y Z
1.0
  8.651270000000    0.000000000000    0.000000000000
  0.000000000000    9.989630000000    0.000000000000
  0.000000000000    0.000000000000   54.630163550000
Au  H  C  Au
40  16  20  40
Direct
  0.666667087029   0.333333362697   0.183040251945
  0.166666742571   0.583333412749   0.183040251945
  0.500000339834   0.583333412749   0.183040251945
  0.166666742571   0.083333311644   0.183040251945
  0.833333829600   0.583333412749   0.183040251945
  0.000000000000   0.333333362697   0.183040251945
  0.333333485141   0.333333362697   0.183040251945
  0.833333829600   0.083333311644   0.183040251945
  0.333333485141   0.833333366701   0.183040251945
  0.000000000000   0.833333366701   0.183040251945
  0.666667087029   0.833333366701   0.183040251945
  0.500000339834   0.083333311644   0.183040251945
  0.333333485141   0.166666633299   0.226140598292
  0.666667087029   0.166666633299   0.226140598292
  0.833333829600   0.916666780451   0.226140598292
  0.666667087029   0.666666728397   0.226140598292
  0.000000000000   0.166666633299   0.226140598292
  0.000000000000   0.666666728397   0.226140598292
  0.500000339834   0.916666780451   0.226140598292
  0.333333485141   0.666666728397   0.226140598292
  0.833333829600   0.416666682350   0.226140598292
  0.166666742571   0.416666682350   0.226140598292
  0.500000339834   0.416666682350   0.226140598292
  0.166666742571   0.916666780451   0.226140598292
  0.500000339834   0.250000050052   0.269240945738
  0.333333485141   0.000000000000   0.269240945738
  0.166666742571   0.250000050052   0.269240945738
  0.500000339834   0.750000049051   0.269240945738
  0.833333829600   0.750000049051   0.269240945738
  0.666667087029   0.000000000000   0.269240945738
  0.666667087029   0.499999998999   0.269240945738
  0.000000000000   0.499999998999   0.269240945738
  0.833333829600   0.250000050052   0.269240945738
  0.000000000000   0.000000000000   0.269240945738
  0.333333485141   0.499999998999   0.269240945738
  0.166666742571   0.750000049051   0.269240945738
  0.333333485141   0.333333362697   0.312341291902
  0.500000339834   0.583333412749   0.312341291902
  0.666667087029   0.333333362697   0.312341291902
  0.500000339834   0.416666682350   0.355441638432
  0.403020358861   0.669729108085   0.361537172078
  0.608076957487   0.655714575014   0.362507332087
  0.266508609719   0.703864506493   0.398622911317
  0.723898102822   0.538893431488   0.400233743031
  0.267895689303   0.721182465216   0.443341796292
  0.722048663375   0.545700490409   0.445025847630
  0.745282245266   0.647806374210   0.477388921161
  0.248245395185   0.640498796252   0.478322471359
  0.748865535349   0.640098381021   0.521741708020
  0.251944274078   0.648406996055   0.522656953312
  0.275062267158   0.546201009447   0.555074941561
  0.729562009971   0.721282569024   0.556667468370
  0.273559596452   0.539393950527   0.599867045977
  0.731180270642   0.703964610301   0.601368048440
  0.389727512839   0.655214055976   0.637575152198
  0.594784111466   0.670229626122   0.638490397307
  0.500000339834   0.618175647146   0.369847599330
  0.496185869820   0.621879488029   0.396444627521
  0.366609519758   0.670229626122   0.408891963495
  0.624259552644   0.578534539317   0.409880428410
  0.367303059551   0.678738450773   0.434097818841
  0.623219241799   0.583739937315   0.435013064134
  0.495376740062   0.635493605869   0.447588534448
  0.496532639716   0.641700041943   0.474313696980
  0.636280909046   0.644302740942   0.487163740882
  0.358749402111   0.642901287635   0.487657973340
  0.638361528423   0.642701080020   0.512387901134
  0.360830021488   0.644603052365   0.512882133592
  0.500578288506   0.641900249559   0.525750482400
  0.501849779281   0.635793917292   0.552457340026
  0.374007277544   0.584240455352   0.565051115246
  0.630039050914   0.678938658389   0.565911445821
  0.373198147786   0.578934954548   0.590202055875
  0.631079360603   0.670429834739   0.591117301167
  0.501503008229   0.622179799452   0.603601246953
  0.498035309267   0.618275749953   0.630198275143
  0.500000339834   0.416666682350   0.644540748588
  0.666667087029   0.333333362697   0.687641095118
  0.500000339834   0.583333412749   0.687641095118
  0.333333485141   0.333333362697   0.687641095118
  0.166666742571   0.250000050052   0.730741441099
  0.500000339834   0.750000049051   0.730741441099
  0.833333829600   0.750000049051   0.730741441099
  0.666667087029   0.000000000000   0.730741441099
  0.666667087029   0.499999998999   0.730741441099
  0.000000000000   0.499999998999   0.730741441099
  0.833333829600   0.250000050052   0.730741441099
  0.000000000000   0.000000000000   0.730741441099
  0.333333485141   0.499999998999   0.730741441099
  0.166666742571   0.750000049051   0.730741441099
  0.500000339834   0.250000050052   0.730741441099
  0.333333485141   0.000000000000   0.730741441099
  0.166666742571   0.416666682350   0.773841788544
  0.500000339834   0.416666682350   0.773841788544
  0.333333485141   0.166666633299   0.773841788544
  0.166666742571   0.916666780451   0.773841788544
  0.666667087029   0.166666633299   0.773841788544
  0.833333829600   0.916666780451   0.773841788544
  0.666667087029   0.666666728397   0.773841788544
  0.000000000000   0.166666633299   0.773841788544
  0.000000000000   0.666666728397   0.773841788544
  0.500000339834   0.916666780451   0.773841788544
  0.333333485141   0.666666728397   0.773841788544
  0.833333829600   0.416666682350   0.773841788544
  0.666667087029   0.833333366701   0.816942135074
  0.500000339834   0.083333311644   0.816942135074
  0.500000339834   0.583333412749   0.816942135074
  0.666667087029   0.333333362697   0.816942135074
  0.166666742571   0.083333311644   0.816942135074
  0.833333829600   0.583333412749   0.816942135074
  0.000000000000   0.333333362697   0.816942135074
  0.333333485141   0.333333362697   0.816942135074
  0.166666742571   0.583333412749   0.816942135074
  0.833333829600   0.083333311644   0.816942135074
  0.333333485141   0.833333366701   0.816942135074
  0.000000000000   0.833333366701   0.816942135074
