82
Generated by alignment script
Au     -2.88400000      0.00000000     -7.06400000
Au     -1.44200000     -2.49700000     -7.06400000
Au      1.44200000      2.49700000     -7.06400000
Au      1.44200000     -2.49700000     -7.06400000
Au      0.00000000      0.00000000     -7.06400000
Au     -1.44200000      2.49700000     -7.06400000
Au      2.88400000      0.00000000     -7.06400000
Au     -5.76800000     -1.66500000     -4.70900000
Au      2.88400000      3.33000000     -4.70900000
Au     -4.32600000      0.83200000     -4.70900000
Au     -2.88400000     -1.66500000     -4.70900000
Au     -1.44200000      0.83200000     -4.70900000
Au      1.44200000      0.83200000     -4.70900000
Au      2.88400000     -1.66500000     -4.70900000
Au      1.44200000      5.82700000     -4.70900000
Au     -1.44200000      5.82700000     -4.70900000
Au      1.44200000     -4.16200000     -4.70900000
Au      5.76800000     -1.66500000     -4.70900000
Au      4.32600000      0.83200000     -4.70900000
Au     -2.88400000      3.33000000     -4.70900000
Au     -4.32600000     -4.16200000     -4.70900000
Au      0.00000000     -1.66500000     -4.70900000
Au      0.00000000      3.33000000     -4.70900000
Au      4.32600000     -4.16200000     -4.70900000
Au     -1.44200000     -4.16200000     -4.70900000
Au     -1.44200000     -0.83200000     -2.35500000
Au      1.44200000     -0.83200000     -2.35500000
Au      0.00000000      1.66500000     -2.35500000
Au      0.00000000      0.00000000      0.00000000
C       0.00000000      0.00000000      2.00000000
C      -0.00000000      0.00000000      3.20300000
C      -0.00000000      0.00000000      4.62500000
H      -0.69200000      2.03100000      4.79400000
H       0.69200000     -2.03000000      4.79400000
C       0.38600000     -1.14100000      5.33500000
C      -0.38600000      1.14200000      5.33500000
C       0.38400000     -1.13800000      6.71700000
C      -0.38400000      1.13900000      6.71800000
H       0.70400000     -2.02700000      7.25100000
H      -0.70400000      2.02700000      7.25100000
C       0.00000000      0.00000000      7.43200000
C      -0.00000000      0.00000000      8.90500000
H       0.70400000      2.02700000      9.08600000
H      -0.70400000     -2.02700000      9.08600000
C       0.38400000      1.13900000      9.62000000
C      -0.38400000     -1.13900000      9.62000000
C      -0.38600000     -1.14100000     11.00200000
C       0.38600000      1.14200000     11.00300000
H       0.69100000      2.03000000     11.54300000
H      -0.69200000     -2.03000000     11.54300000
C      -0.00000000      0.00000000     11.71200000
C      -0.00000000      0.00000000     13.13400000
C       0.00000000      0.00000000     14.33700000
Au      0.00000000      0.00000000     16.33700000
Au      1.44200000     -0.83200000     18.69200000
Au      0.00000000      1.66500000     18.69200000
Au     -1.44200000     -0.83200000     18.69200000
Au     -1.44200000      5.82700000     21.04600000
Au     -5.76800000     -1.66500000     21.04600000
Au      4.32600000      0.83200000     21.04600000
Au      4.32600000     -4.16200000     21.04600000
Au      0.00000000      3.33000000     21.04600000
Au     -1.44200000     -4.16200000     21.04600000
Au      5.76800000     -1.66500000     21.04600000
Au     -1.44200000      0.83200000     21.04600000
Au      1.44200000     -4.16200000     21.04600000
Au      0.00000000     -1.66500000     21.04600000
Au     -4.32600000      0.83200000     21.04600000
Au      1.44200000      0.83200000     21.04600000
Au      2.88400000      3.33000000     21.04600000
Au      2.88400000     -1.66500000     21.04600000
Au     -2.88400000      3.33000000     21.04600000
Au     -2.88400000     -1.66500000     21.04600000
Au     -4.32600000     -4.16200000     21.04600000
Au      1.44200000      5.82700000     21.04600000
Au     -1.44200000      2.49700000     23.40100000
Au     -1.44200000     -2.49700000     23.40100000
Au      1.44200000     -2.49700000     23.40100000
Au      0.00000000      0.00000000     23.40100000
Au     -2.88400000      0.00000000     23.40100000
Au      1.44200000      2.49700000     23.40100000
Au      2.88400000      0.00000000     23.40100000
