32
EM assembled from temp_aligned.xyz with template 4au-em.xyz; bond_L=2.000 bond_R=2.000
Au      1.44188000     -0.83247000     -2.35458000
Au      0.00000000      1.66494000     -2.35458000
Au     -1.44188000     -0.83247000     -2.35458000
Au      0.00000000      0.00000000      0.00000000
C       0.00000241      0.00024148      7.43230762
C      -0.00001530      0.00020216      8.90493868
C      -0.38378757      1.13899446      6.71752872
C       0.38373318      1.13893219      9.61977376
C       0.38379049     -1.13846400      6.71746251
C      -0.38375647     -1.13855641      9.61972773
C      -0.38643259      1.14165265      5.33476177
C       0.38631739      1.14154981     11.00254260
C       0.38637954     -1.14105445      5.33469835
C      -0.38640374     -1.14118822     11.00249004
C      -0.00008301      0.00029529      4.62511786
C      -0.00009017      0.00017873     11.71212939
C      -0.00011599      0.00026506      3.20331590
C      -0.00006423      0.00002480     13.13393130
C       0.00000000      0.00000000      2.00000000
C       0.00000000      0.00000000     14.33723695
H      -0.70378974      2.02730291      7.25116129
H       0.70368715      2.02728269      9.08618245
H       0.70370229     -2.02684254      7.25103230
H      -0.70364535     -2.02691883      9.08611653
H      -0.69158988      2.03055766      4.79433164
H       0.69147715      2.03043469     11.54300610
H       0.69154690     -2.02993054      4.79422297
H      -0.69150087     -2.03010736     11.54293156
Au      0.00000000      0.00000000     16.33723695
Au      0.00000000      1.66494000     18.69181695
Au      1.44188000     -0.83246000     18.69181695
Au     -1.44188000     -0.83246000     18.69181695
