[Molden Format]
[Title]
[5D]
[Atoms] Angs
Au  1     79    2.88375798  3.32987696  8.24102644  
Au  2     79    4.32563794  5.82728496  8.24102644  
Au  3     79    5.76751697  3.32987696  8.24102644  
Au  4     79    4.32563794  4.16234599  10.59560542 
C   5     6     4.32564518  4.16130068  19.50063084 
C   6     6     4.32617961  4.16137192  22.31809329 
C   7     6     4.32545222  4.16137174  18.02806442 
C   8     6     4.32629476  4.16145739  23.79065952 
C   9     6     4.32411364  5.36079897  20.21760596 
C   10    6     4.32765102  5.36083769  21.60106568 
C   11    6     4.32747591  2.96183250  20.21765237 
C   12    6     4.32445827  2.96187128  21.60112097 
C   13    6     3.60109526  5.12023254  17.31331372 
C   14    6     5.05047240  5.12038778  24.50549709 
C   15    6     5.04971589  3.20271997  17.31294839 
C   16    6     3.60211901  3.20267515  24.50569338 
C   17    6     3.59786099  5.12228648  15.93054085 
C   18    6     5.05363597  5.12235614  25.88827294 
C   19    6     5.05294789  3.20123077  15.93017132 
C   20    6     3.59882099  3.20109593  25.88846732 
C   21    6     4.32544141  4.16192491  15.22071145 
C   22    6     4.32616192  4.16184896  26.59801551 
C   23    6     4.32555492  4.16224916  13.79890373 
C   24    6     4.32595433  4.16209622  28.01982306 
C   25    6     4.32563794  4.16234599  12.59560542 
C   26    6     4.32563794  4.16234599  29.22312143 
H   27    1     4.33856356  6.30663646  19.68704239 
H   28    1     4.31314275  6.30670623  22.13157251 
H   29    1     4.31283798  2.01596239  19.68714874 
H   30    1     4.33917080  2.01603148  22.13167586 
H   31    1     3.01624062  5.86149299  17.84692108 
H   32    1     5.63524070  5.86177375  23.97196785 
H   33    1     5.63453490  2.46121815  17.84626058 
H   34    1     3.01741533  2.46113516  23.97231001 
H   35    1     3.02716462  5.86911720  15.39024722 
H   36    1     5.62419574  5.86923583  26.42864448 
H   37    1     5.62363796  2.45461921  15.38956667 
H   38    1     3.02820712  2.45436972  26.42899260 
Au  39    79    4.32563794  4.16234599  31.22312143 
Au  40    79    5.76751697  3.32987696  33.57770041 
Au  41    79    4.32563794  5.82728496  33.57770041 
Au  42    79    2.88375798  3.32987696  33.57770041 
[GTO]
          1 0
 d           4   1.0000000000000000
   4.1122701249566029      -0.47332494084401033
  0.80618503785873696       0.44453585425802272
  0.44619161658050349       0.22009304110035216
  0.25552080427598067        1.7993341579764486E-002
 s           6   1.0000000000000000
   3.1357416824854494        7.6487877799347858E-003
   1.4695410569471776        5.0287489045723770E-002
  0.42917072702413200      -0.28573460385982991
  0.26896214478566322       -6.0418061133577304E-002
  0.16130109238815588       0.24171496990925084
  0.10196415776492572        4.6586097542082996E-002
 p           6   1.0000000000000000
   2.0508146749125000        9.7346018232745031E-003
  0.42724624910625003       -6.3165011496547019E-002
  0.25001928314999999       -5.7110495203722841E-002
  0.14045633395499998        5.7388149027348262E-002
   9.0689982652500001E-002   4.7898819711647861E-002
   5.7643027955625002E-002   4.3945147119338543E-003

          2 0
 d           4   1.0000000000000000
   4.1122701249566029      -0.47332494084401033
  0.80618503785873696       0.44453585425802272
  0.44619161658050349       0.22009304110035216
  0.25552080427598067        1.7993341579764486E-002
 s           6   1.0000000000000000
   3.1357416824854494        7.6487877799347858E-003
   1.4695410569471776        5.0287489045723770E-002
  0.42917072702413200      -0.28573460385982991
  0.26896214478566322       -6.0418061133577304E-002
  0.16130109238815588       0.24171496990925084
  0.10196415776492572        4.6586097542082996E-002
 p           6   1.0000000000000000
   2.0508146749125000        9.7346018232745031E-003
  0.42724624910625003       -6.3165011496547019E-002
  0.25001928314999999       -5.7110495203722841E-002
  0.14045633395499998        5.7388149027348262E-002
   9.0689982652500001E-002   4.7898819711647861E-002
   5.7643027955625002E-002   4.3945147119338543E-003

          3 0
 d           4   1.0000000000000000
   4.1122701249566029      -0.47332494084401033
  0.80618503785873696       0.44453585425802272
  0.44619161658050349       0.22009304110035216
  0.25552080427598067        1.7993341579764486E-002
 s           6   1.0000000000000000
   3.1357416824854494        7.6487877799347858E-003
   1.4695410569471776        5.0287489045723770E-002
  0.42917072702413200      -0.28573460385982991
  0.26896214478566322       -6.0418061133577304E-002
  0.16130109238815588       0.24171496990925084
  0.10196415776492572        4.6586097542082996E-002
 p           6   1.0000000000000000
   2.0508146749125000        9.7346018232745031E-003
  0.42724624910625003       -6.3165011496547019E-002
  0.25001928314999999       -5.7110495203722841E-002
  0.14045633395499998        5.7388149027348262E-002
   9.0689982652500001E-002   4.7898819711647861E-002
   5.7643027955625002E-002   4.3945147119338543E-003

          4 0
 d           4   1.0000000000000000
   4.1122701249566029      -0.47332494084401033
  0.80618503785873696       0.44453585425802272
  0.44619161658050349       0.22009304110035216
  0.25552080427598067        1.7993341579764486E-002
 s           6   1.0000000000000000
   3.1357416824854494        7.6487877799347858E-003
   1.4695410569471776        5.0287489045723770E-002
  0.42917072702413200      -0.28573460385982991
  0.26896214478566322       -6.0418061133577304E-002
  0.16130109238815588       0.24171496990925084
  0.10196415776492572        4.6586097542082996E-002
 p           6   1.0000000000000000
   2.0508146749125000        9.7346018232745031E-003
  0.42724624910625003       -6.3165011496547019E-002
  0.25001928314999999       -5.7110495203722841E-002
  0.14045633395499998        5.7388149027348262E-002
   9.0689982652500001E-002   4.7898819711647861E-002
   5.7643027955625002E-002   4.3945147119338543E-003

          5 0
 s           6   1.0000000000000000
   106.38971661757030       -9.8009151699919875E-002
   19.510792340428655      -0.13676085979760455
   5.4829535718846767      -0.13152364218142998
  0.78407453403153715       0.19871892812986372
  0.35586124621498083       0.18458182484227953
  0.16970821740424907        3.2280723842753281E-002
 p           6   1.0000000000000000
   19.697346208514816       0.46871300964462981
   5.1366673338425883       0.56702433552910014
   1.8379485147102486       0.57908791780781932
  0.76829761123302320       0.41523341391527901
  0.35131800475041969       0.15469126795368998
  0.16609075699863593        1.5897464808064834E-002

          6 0
 s           6   1.0000000000000000
   106.38971661757030       -9.8009151699919875E-002
   19.510792340428655      -0.13676085979760455
   5.4829535718846767      -0.13152364218142998
  0.78407453403153715       0.19871892812986372
  0.35586124621498083       0.18458182484227953
  0.16970821740424907        3.2280723842753281E-002
 p           6   1.0000000000000000
   19.697346208514816       0.46871300964462981
   5.1366673338425883       0.56702433552910014
   1.8379485147102486       0.57908791780781932
  0.76829761123302320       0.41523341391527901
  0.35131800475041969       0.15469126795368998
  0.16609075699863593        1.5897464808064834E-002

          7 0
 s           6   1.0000000000000000
   106.38971661757030       -9.8009151699919875E-002
   19.510792340428655      -0.13676085979760455
   5.4829535718846767      -0.13152364218142998
  0.78407453403153715       0.19871892812986372
  0.35586124621498083       0.18458182484227953
  0.16970821740424907        3.2280723842753281E-002
 p           6   1.0000000000000000
   19.697346208514816       0.46871300964462981
   5.1366673338425883       0.56702433552910014
   1.8379485147102486       0.57908791780781932
  0.76829761123302320       0.41523341391527901
  0.35131800475041969       0.15469126795368998
  0.16609075699863593        1.5897464808064834E-002

          8 0
 s           6   1.0000000000000000
   106.38971661757030       -9.8009151699919875E-002
   19.510792340428655      -0.13676085979760455
   5.4829535718846767      -0.13152364218142998
  0.78407453403153715       0.19871892812986372
  0.35586124621498083       0.18458182484227953
  0.16970821740424907        3.2280723842753281E-002
 p           6   1.0000000000000000
   19.697346208514816       0.46871300964462981
   5.1366673338425883       0.56702433552910014
   1.8379485147102486       0.57908791780781932
  0.76829761123302320       0.41523341391527901
  0.35131800475041969       0.15469126795368998
  0.16609075699863593        1.5897464808064834E-002

          9 0
 s           6   1.0000000000000000
   106.38971661757030       -9.8009151699919875E-002
   19.510792340428655      -0.13676085979760455
   5.4829535718846767      -0.13152364218142998
  0.78407453403153715       0.19871892812986372
  0.35586124621498083       0.18458182484227953
  0.16970821740424907        3.2280723842753281E-002
 p           6   1.0000000000000000
   19.697346208514816       0.46871300964462981
   5.1366673338425883       0.56702433552910014
   1.8379485147102486       0.57908791780781932
  0.76829761123302320       0.41523341391527901
  0.35131800475041969       0.15469126795368998
  0.16609075699863593        1.5897464808064834E-002

          10 0
 s           6   1.0000000000000000
   106.38971661757030       -9.8009151699919875E-002
   19.510792340428655      -0.13676085979760455
   5.4829535718846767      -0.13152364218142998
  0.78407453403153715       0.19871892812986372
  0.35586124621498083       0.18458182484227953
  0.16970821740424907        3.2280723842753281E-002
 p           6   1.0000000000000000
   19.697346208514816       0.46871300964462981
   5.1366673338425883       0.56702433552910014
   1.8379485147102486       0.57908791780781932
  0.76829761123302320       0.41523341391527901
  0.35131800475041969       0.15469126795368998
  0.16609075699863593        1.5897464808064834E-002

          11 0
 s           6   1.0000000000000000
   106.38971661757030       -9.8009151699919875E-002
   19.510792340428655      -0.13676085979760455
   5.4829535718846767      -0.13152364218142998
  0.78407453403153715       0.19871892812986372
  0.35586124621498083       0.18458182484227953
  0.16970821740424907        3.2280723842753281E-002
 p           6   1.0000000000000000
   19.697346208514816       0.46871300964462981
   5.1366673338425883       0.56702433552910014
   1.8379485147102486       0.57908791780781932
  0.76829761123302320       0.41523341391527901
  0.35131800475041969       0.15469126795368998
  0.16609075699863593        1.5897464808064834E-002

          12 0
 s           6   1.0000000000000000
   106.38971661757030       -9.8009151699919875E-002
   19.510792340428655      -0.13676085979760455
   5.4829535718846767      -0.13152364218142998
  0.78407453403153715       0.19871892812986372
  0.35586124621498083       0.18458182484227953
  0.16970821740424907        3.2280723842753281E-002
 p           6   1.0000000000000000
   19.697346208514816       0.46871300964462981
   5.1366673338425883       0.56702433552910014
   1.8379485147102486       0.57908791780781932
  0.76829761123302320       0.41523341391527901
  0.35131800475041969       0.15469126795368998
  0.16609075699863593        1.5897464808064834E-002

          13 0
 s           6   1.0000000000000000
   106.38971661757030       -9.8009151699919875E-002
   19.510792340428655      -0.13676085979760455
   5.4829535718846767      -0.13152364218142998
  0.78407453403153715       0.19871892812986372
  0.35586124621498083       0.18458182484227953
  0.16970821740424907        3.2280723842753281E-002
 p           6   1.0000000000000000
   19.697346208514816       0.46871300964462981
   5.1366673338425883       0.56702433552910014
   1.8379485147102486       0.57908791780781932
  0.76829761123302320       0.41523341391527901
  0.35131800475041969       0.15469126795368998
  0.16609075699863593        1.5897464808064834E-002

          14 0
 s           6   1.0000000000000000
   106.38971661757030       -9.8009151699919875E-002
   19.510792340428655      -0.13676085979760455
   5.4829535718846767      -0.13152364218142998
  0.78407453403153715       0.19871892812986372
  0.35586124621498083       0.18458182484227953
  0.16970821740424907        3.2280723842753281E-002
 p           6   1.0000000000000000
   19.697346208514816       0.46871300964462981
   5.1366673338425883       0.56702433552910014
   1.8379485147102486       0.57908791780781932
  0.76829761123302320       0.41523341391527901
  0.35131800475041969       0.15469126795368998
  0.16609075699863593        1.5897464808064834E-002

          15 0
 s           6   1.0000000000000000
   106.38971661757030       -9.8009151699919875E-002
   19.510792340428655      -0.13676085979760455
   5.4829535718846767      -0.13152364218142998
  0.78407453403153715       0.19871892812986372
  0.35586124621498083       0.18458182484227953
  0.16970821740424907        3.2280723842753281E-002
 p           6   1.0000000000000000
   19.697346208514816       0.46871300964462981
   5.1366673338425883       0.56702433552910014
   1.8379485147102486       0.57908791780781932
  0.76829761123302320       0.41523341391527901
  0.35131800475041969       0.15469126795368998
  0.16609075699863593        1.5897464808064834E-002

          16 0
 s           6   1.0000000000000000
   106.38971661757030       -9.8009151699919875E-002
   19.510792340428655      -0.13676085979760455
   5.4829535718846767      -0.13152364218142998
  0.78407453403153715       0.19871892812986372
  0.35586124621498083       0.18458182484227953
  0.16970821740424907        3.2280723842753281E-002
 p           6   1.0000000000000000
   19.697346208514816       0.46871300964462981
   5.1366673338425883       0.56702433552910014
   1.8379485147102486       0.57908791780781932
  0.76829761123302320       0.41523341391527901
  0.35131800475041969       0.15469126795368998
  0.16609075699863593        1.5897464808064834E-002

          17 0
 s           6   1.0000000000000000
   106.38971661757030       -9.8009151699919875E-002
   19.510792340428655      -0.13676085979760455
   5.4829535718846767      -0.13152364218142998
  0.78407453403153715       0.19871892812986372
  0.35586124621498083       0.18458182484227953
  0.16970821740424907        3.2280723842753281E-002
 p           6   1.0000000000000000
   19.697346208514816       0.46871300964462981
   5.1366673338425883       0.56702433552910014
   1.8379485147102486       0.57908791780781932
  0.76829761123302320       0.41523341391527901
  0.35131800475041969       0.15469126795368998
  0.16609075699863593        1.5897464808064834E-002

          18 0
 s           6   1.0000000000000000
   106.38971661757030       -9.8009151699919875E-002
   19.510792340428655      -0.13676085979760455
   5.4829535718846767      -0.13152364218142998
  0.78407453403153715       0.19871892812986372
  0.35586124621498083       0.18458182484227953
  0.16970821740424907        3.2280723842753281E-002
 p           6   1.0000000000000000
   19.697346208514816       0.46871300964462981
   5.1366673338425883       0.56702433552910014
   1.8379485147102486       0.57908791780781932
  0.76829761123302320       0.41523341391527901
  0.35131800475041969       0.15469126795368998
  0.16609075699863593        1.5897464808064834E-002

          19 0
 s           6   1.0000000000000000
   106.38971661757030       -9.8009151699919875E-002
   19.510792340428655      -0.13676085979760455
   5.4829535718846767      -0.13152364218142998
  0.78407453403153715       0.19871892812986372
  0.35586124621498083       0.18458182484227953
  0.16970821740424907        3.2280723842753281E-002
 p           6   1.0000000000000000
   19.697346208514816       0.46871300964462981
   5.1366673338425883       0.56702433552910014
   1.8379485147102486       0.57908791780781932
  0.76829761123302320       0.41523341391527901
  0.35131800475041969       0.15469126795368998
  0.16609075699863593        1.5897464808064834E-002

          20 0
 s           6   1.0000000000000000
   106.38971661757030       -9.8009151699919875E-002
   19.510792340428655      -0.13676085979760455
   5.4829535718846767      -0.13152364218142998
  0.78407453403153715       0.19871892812986372
  0.35586124621498083       0.18458182484227953
  0.16970821740424907        3.2280723842753281E-002
 p           6   1.0000000000000000
   19.697346208514816       0.46871300964462981
   5.1366673338425883       0.56702433552910014
   1.8379485147102486       0.57908791780781932
  0.76829761123302320       0.41523341391527901
  0.35131800475041969       0.15469126795368998
  0.16609075699863593        1.5897464808064834E-002

          21 0
 s           6   1.0000000000000000
   106.38971661757030       -9.8009151699919875E-002
   19.510792340428655      -0.13676085979760455
   5.4829535718846767      -0.13152364218142998
  0.78407453403153715       0.19871892812986372
  0.35586124621498083       0.18458182484227953
  0.16970821740424907        3.2280723842753281E-002
 p           6   1.0000000000000000
   19.697346208514816       0.46871300964462981
   5.1366673338425883       0.56702433552910014
   1.8379485147102486       0.57908791780781932
  0.76829761123302320       0.41523341391527901
  0.35131800475041969       0.15469126795368998
  0.16609075699863593        1.5897464808064834E-002

          22 0
 s           6   1.0000000000000000
   106.38971661757030       -9.8009151699919875E-002
   19.510792340428655      -0.13676085979760455
   5.4829535718846767      -0.13152364218142998
  0.78407453403153715       0.19871892812986372
  0.35586124621498083       0.18458182484227953
  0.16970821740424907        3.2280723842753281E-002
 p           6   1.0000000000000000
   19.697346208514816       0.46871300964462981
   5.1366673338425883       0.56702433552910014
   1.8379485147102486       0.57908791780781932
  0.76829761123302320       0.41523341391527901
  0.35131800475041969       0.15469126795368998
  0.16609075699863593        1.5897464808064834E-002

          23 0
 s           6   1.0000000000000000
   106.38971661757030       -9.8009151699919875E-002
   19.510792340428655      -0.13676085979760455
   5.4829535718846767      -0.13152364218142998
  0.78407453403153715       0.19871892812986372
  0.35586124621498083       0.18458182484227953
  0.16970821740424907        3.2280723842753281E-002
 p           6   1.0000000000000000
   19.697346208514816       0.46871300964462981
   5.1366673338425883       0.56702433552910014
   1.8379485147102486       0.57908791780781932
  0.76829761123302320       0.41523341391527901
  0.35131800475041969       0.15469126795368998
  0.16609075699863593        1.5897464808064834E-002

          24 0
 s           6   1.0000000000000000
   106.38971661757030       -9.8009151699919875E-002
   19.510792340428655      -0.13676085979760455
   5.4829535718846767      -0.13152364218142998
  0.78407453403153715       0.19871892812986372
  0.35586124621498083       0.18458182484227953
  0.16970821740424907        3.2280723842753281E-002
 p           6   1.0000000000000000
   19.697346208514816       0.46871300964462981
   5.1366673338425883       0.56702433552910014
   1.8379485147102486       0.57908791780781932
  0.76829761123302320       0.41523341391527901
  0.35131800475041969       0.15469126795368998
  0.16609075699863593        1.5897464808064834E-002

          25 0
 s           6   1.0000000000000000
   106.38971661757030       -9.8009151699919875E-002
   19.510792340428655      -0.13676085979760455
   5.4829535718846767      -0.13152364218142998
  0.78407453403153715       0.19871892812986372
  0.35586124621498083       0.18458182484227953
  0.16970821740424907        3.2280723842753281E-002
 p           6   1.0000000000000000
   19.697346208514816       0.46871300964462981
   5.1366673338425883       0.56702433552910014
   1.8379485147102486       0.57908791780781932
  0.76829761123302320       0.41523341391527901
  0.35131800475041969       0.15469126795368998
  0.16609075699863593        1.5897464808064834E-002

          26 0
 s           6   1.0000000000000000
   106.38971661757030       -9.8009151699919875E-002
   19.510792340428655      -0.13676085979760455
   5.4829535718846767      -0.13152364218142998
  0.78407453403153715       0.19871892812986372
  0.35586124621498083       0.18458182484227953
  0.16970821740424907        3.2280723842753281E-002
 p           6   1.0000000000000000
   19.697346208514816       0.46871300964462981
   5.1366673338425883       0.56702433552910014
   1.8379485147102486       0.57908791780781932
  0.76829761123302320       0.41523341391527901
  0.35131800475041969       0.15469126795368998
  0.16609075699863593        1.5897464808064834E-002

          27 0
 s           4   1.0000000000000000
   7.6119972070599680       0.18536103626168826
   1.3929017058802009       0.23771678223106302
  0.38696334625048251       0.18632205597323881
  0.12842965592697322        4.4589693726254674E-002
 s           7   1.0000000000000000
   10.256286070314902       -1.3186544678254319
  0.62279653258753898        1.6038777007695870
  0.23910076678539138       0.60132301017728140
   7.6119972070599680      -0.98090431986331261
   1.3929017058802009       -1.2579635035340533
  0.38696334625048251      -0.98598989990507979
  0.12842965592697322      -0.23596233641959516

          28 0
 s           4   1.0000000000000000
   7.6119972070599680       0.18536103626168826
   1.3929017058802009       0.23771678223106302
  0.38696334625048251       0.18632205597323881
  0.12842965592697322        4.4589693726254674E-002
 s           7   1.0000000000000000
   10.256286070314902       -1.3186544678254319
  0.62279653258753898        1.6038777007695870
  0.23910076678539138       0.60132301017728140
   7.6119972070599680      -0.98090431986331261
   1.3929017058802009       -1.2579635035340533
  0.38696334625048251      -0.98598989990507979
  0.12842965592697322      -0.23596233641959516

          29 0
 s           4   1.0000000000000000
   7.6119972070599680       0.18536103626168826
   1.3929017058802009       0.23771678223106302
  0.38696334625048251       0.18632205597323881
  0.12842965592697322        4.4589693726254674E-002
 s           7   1.0000000000000000
   10.256286070314902       -1.3186544678254319
  0.62279653258753898        1.6038777007695870
  0.23910076678539138       0.60132301017728140
   7.6119972070599680      -0.98090431986331261
   1.3929017058802009       -1.2579635035340533
  0.38696334625048251      -0.98598989990507979
  0.12842965592697322      -0.23596233641959516

          30 0
 s           4   1.0000000000000000
   7.6119972070599680       0.18536103626168826
   1.3929017058802009       0.23771678223106302
  0.38696334625048251       0.18632205597323881
  0.12842965592697322        4.4589693726254674E-002
 s           7   1.0000000000000000
   10.256286070314902       -1.3186544678254319
  0.62279653258753898        1.6038777007695870
  0.23910076678539138       0.60132301017728140
   7.6119972070599680      -0.98090431986331261
   1.3929017058802009       -1.2579635035340533
  0.38696334625048251      -0.98598989990507979
  0.12842965592697322      -0.23596233641959516

          31 0
 s           4   1.0000000000000000
   7.6119972070599680       0.18536103626168826
   1.3929017058802009       0.23771678223106302
  0.38696334625048251       0.18632205597323881
  0.12842965592697322        4.4589693726254674E-002
 s           7   1.0000000000000000
   10.256286070314902       -1.3186544678254319
  0.62279653258753898        1.6038777007695870
  0.23910076678539138       0.60132301017728140
   7.6119972070599680      -0.98090431986331261
   1.3929017058802009       -1.2579635035340533
  0.38696334625048251      -0.98598989990507979
  0.12842965592697322      -0.23596233641959516

          32 0
 s           4   1.0000000000000000
   7.6119972070599680       0.18536103626168826
   1.3929017058802009       0.23771678223106302
  0.38696334625048251       0.18632205597323881
  0.12842965592697322        4.4589693726254674E-002
 s           7   1.0000000000000000
   10.256286070314902       -1.3186544678254319
  0.62279653258753898        1.6038777007695870
  0.23910076678539138       0.60132301017728140
   7.6119972070599680      -0.98090431986331261
   1.3929017058802009       -1.2579635035340533
  0.38696334625048251      -0.98598989990507979
  0.12842965592697322      -0.23596233641959516

          33 0
 s           4   1.0000000000000000
   7.6119972070599680       0.18536103626168826
   1.3929017058802009       0.23771678223106302
  0.38696334625048251       0.18632205597323881
  0.12842965592697322        4.4589693726254674E-002
 s           7   1.0000000000000000
   10.256286070314902       -1.3186544678254319
  0.62279653258753898        1.6038777007695870
  0.23910076678539138       0.60132301017728140
   7.6119972070599680      -0.98090431986331261
   1.3929017058802009       -1.2579635035340533
  0.38696334625048251      -0.98598989990507979
  0.12842965592697322      -0.23596233641959516

          34 0
 s           4   1.0000000000000000
   7.6119972070599680       0.18536103626168826
   1.3929017058802009       0.23771678223106302
  0.38696334625048251       0.18632205597323881
  0.12842965592697322        4.4589693726254674E-002
 s           7   1.0000000000000000
   10.256286070314902       -1.3186544678254319
  0.62279653258753898        1.6038777007695870
  0.23910076678539138       0.60132301017728140
   7.6119972070599680      -0.98090431986331261
   1.3929017058802009       -1.2579635035340533
  0.38696334625048251      -0.98598989990507979
  0.12842965592697322      -0.23596233641959516

          35 0
 s           4   1.0000000000000000
   7.6119972070599680       0.18536103626168826
   1.3929017058802009       0.23771678223106302
  0.38696334625048251       0.18632205597323881
  0.12842965592697322        4.4589693726254674E-002
 s           7   1.0000000000000000
   10.256286070314902       -1.3186544678254319
  0.62279653258753898        1.6038777007695870
  0.23910076678539138       0.60132301017728140
   7.6119972070599680      -0.98090431986331261
   1.3929017058802009       -1.2579635035340533
  0.38696334625048251      -0.98598989990507979
  0.12842965592697322      -0.23596233641959516

          36 0
 s           4   1.0000000000000000
   7.6119972070599680       0.18536103626168826
   1.3929017058802009       0.23771678223106302
  0.38696334625048251       0.18632205597323881
  0.12842965592697322        4.4589693726254674E-002
 s           7   1.0000000000000000
   10.256286070314902       -1.3186544678254319
  0.62279653258753898        1.6038777007695870
  0.23910076678539138       0.60132301017728140
   7.6119972070599680      -0.98090431986331261
   1.3929017058802009       -1.2579635035340533
  0.38696334625048251      -0.98598989990507979
  0.12842965592697322      -0.23596233641959516

          37 0
 s           4   1.0000000000000000
   7.6119972070599680       0.18536103626168826
   1.3929017058802009       0.23771678223106302
  0.38696334625048251       0.18632205597323881
  0.12842965592697322        4.4589693726254674E-002
 s           7   1.0000000000000000
   10.256286070314902       -1.3186544678254319
  0.62279653258753898        1.6038777007695870
  0.23910076678539138       0.60132301017728140
   7.6119972070599680      -0.98090431986331261
   1.3929017058802009       -1.2579635035340533
  0.38696334625048251      -0.98598989990507979
  0.12842965592697322      -0.23596233641959516

          38 0
 s           4   1.0000000000000000
   7.6119972070599680       0.18536103626168826
   1.3929017058802009       0.23771678223106302
  0.38696334625048251       0.18632205597323881
  0.12842965592697322        4.4589693726254674E-002
 s           7   1.0000000000000000
   10.256286070314902       -1.3186544678254319
  0.62279653258753898        1.6038777007695870
  0.23910076678539138       0.60132301017728140
   7.6119972070599680      -0.98090431986331261
   1.3929017058802009       -1.2579635035340533
  0.38696334625048251      -0.98598989990507979
  0.12842965592697322      -0.23596233641959516

          39 0
 d           4   1.0000000000000000
   4.1122701249566029      -0.47332494084401033
  0.80618503785873696       0.44453585425802272
  0.44619161658050349       0.22009304110035216
  0.25552080427598067        1.7993341579764486E-002
 s           6   1.0000000000000000
   3.1357416824854494        7.6487877799347858E-003
   1.4695410569471776        5.0287489045723770E-002
  0.42917072702413200      -0.28573460385982991
  0.26896214478566322       -6.0418061133577304E-002
  0.16130109238815588       0.24171496990925084
  0.10196415776492572        4.6586097542082996E-002
 p           6   1.0000000000000000
   2.0508146749125000        9.7346018232745031E-003
  0.42724624910625003       -6.3165011496547019E-002
  0.25001928314999999       -5.7110495203722841E-002
  0.14045633395499998        5.7388149027348262E-002
   9.0689982652500001E-002   4.7898819711647861E-002
   5.7643027955625002E-002   4.3945147119338543E-003

          40 0
 d           4   1.0000000000000000
   4.1122701249566029      -0.47332494084401033
  0.80618503785873696       0.44453585425802272
  0.44619161658050349       0.22009304110035216
  0.25552080427598067        1.7993341579764486E-002
 s           6   1.0000000000000000
   3.1357416824854494        7.6487877799347858E-003
   1.4695410569471776        5.0287489045723770E-002
  0.42917072702413200      -0.28573460385982991
  0.26896214478566322       -6.0418061133577304E-002
  0.16130109238815588       0.24171496990925084
  0.10196415776492572        4.6586097542082996E-002
 p           6   1.0000000000000000
   2.0508146749125000        9.7346018232745031E-003
  0.42724624910625003       -6.3165011496547019E-002
  0.25001928314999999       -5.7110495203722841E-002
  0.14045633395499998        5.7388149027348262E-002
   9.0689982652500001E-002   4.7898819711647861E-002
   5.7643027955625002E-002   4.3945147119338543E-003

          41 0
 d           4   1.0000000000000000
   4.1122701249566029      -0.47332494084401033
  0.80618503785873696       0.44453585425802272
  0.44619161658050349       0.22009304110035216
  0.25552080427598067        1.7993341579764486E-002
 s           6   1.0000000000000000
   3.1357416824854494        7.6487877799347858E-003
   1.4695410569471776        5.0287489045723770E-002
  0.42917072702413200      -0.28573460385982991
  0.26896214478566322       -6.0418061133577304E-002
  0.16130109238815588       0.24171496990925084
  0.10196415776492572        4.6586097542082996E-002
 p           6   1.0000000000000000
   2.0508146749125000        9.7346018232745031E-003
  0.42724624910625003       -6.3165011496547019E-002
  0.25001928314999999       -5.7110495203722841E-002
  0.14045633395499998        5.7388149027348262E-002
   9.0689982652500001E-002   4.7898819711647861E-002
   5.7643027955625002E-002   4.3945147119338543E-003

          42 0
 d           4   1.0000000000000000
   4.1122701249566029      -0.47332494084401033
  0.80618503785873696       0.44453585425802272
  0.44619161658050349       0.22009304110035216
  0.25552080427598067        1.7993341579764486E-002
 s           6   1.0000000000000000
   3.1357416824854494        7.6487877799347858E-003
   1.4695410569471776        5.0287489045723770E-002
  0.42917072702413200      -0.28573460385982991
  0.26896214478566322       -6.0418061133577304E-002
  0.16130109238815588       0.24171496990925084
  0.10196415776492572        4.6586097542082996E-002
 p           6   1.0000000000000000
   2.0508146749125000        9.7346018232745031E-003
  0.42724624910625003       -6.3165011496547019E-002
  0.25001928314999999       -5.7110495203722841E-002
  0.14045633395499998        5.7388149027348262E-002
   9.0689982652500001E-002   4.7898819711647861E-002
   5.7643027955625002E-002   4.3945147119338543E-003

[MO]
 Sym= 1A
 Ene= -0.036319
 Spin= Alpha
 Occup= 2.0
  1     0.0960576668450751
  2     0.0438852856442005
  3     0.0024792874845074
  4     0.0595824573191619
  5     0.1836440632626123
  6     0.2215557000211405
  7     0.0041669939399934
  8     0.0408489381960715
  9     0.0274413857243969
 10     0.1250014174452686
 11     0.0691956681007083
 12     0.0040278969847627
 13     0.0056317747233970
 14     0.0322891314389368
 15     0.1885710869479124
 16     0.0538408189068218
 17     0.0128043363773642
 18     0.0406555927972685
 19     0.0888926065461005
 20     0.0306555760887226
 21     0.0220232301879264
 22     0.0419542417760409
 23     0.2077296932198056
 24     0.0325651469602748
 25     0.0996167639492750
 26     0.0318790882938445
 27     0.0085830969494224
 28     0.1239874076290926
 29     0.0106107885585651
 30     0.0748535780057077
 31     0.0047525548326213
 32     0.6221222356124496
 33     0.3246238531722669
 34     0.0153402342262953
 35     0.0150626407241587
 36     0.2022312201224813
 37     0.0045698757275583
 38     0.0482257965500380
 39     0.0027156848143163
 40     0.0078340729526916
 41     0.0003114281713495
 42     0.0363633395794520
 43     0.0076386661006671
 44     0.0005089198164098
 45     0.0017199541743048
 46     0.0252632895375101
 47     0.0180311889079259
 48     0.0034316119952737
 49     0.0002291135806576
 50     0.0711029878974822
 51     0.0505594864635887
 52     0.0002321572396264
 53     0.0026607410431477
 54     0.0174322707654821
 55     0.0019896170613402
 56     0.0037319186457713
 57     0.0063800008178663
 58     0.0398163435023525
 59     0.0066040835249582
 60     0.0066231219711858
 61     0.0023372070303373
 62     0.0185740375901770
 63     0.0047551549320541
 64     0.0045169946390372
 65     0.0065330566448677
 66     0.0394955211076125
 67     0.0068257355143241
 68     0.0070012641536612
 69     0.0108725140699012
 70     0.0130564013506417
 71     0.0142878807671634
 72     0.0196713493609862
 73     0.0023492449022149
 74     0.0295239961124702
 75     0.0247095629306792
 76     0.0023744921681463
 77     0.0111537765809521
 78     0.0132843832517998
 79     0.0138974716701349
 80     0.0226891375296566
 81     0.0021988686715343
 82     0.0295261583126912
 83     0.0247194072903048
 84     0.0025281292318509
 85     0.0086275005739093
 86     0.0153514257245511
 87     0.0250653867628414
 88     0.0166844269912571
 89     0.0010324148502179
 90     0.0467108095061620
 91     0.0371728468872830
 92     0.0012842325684176
 93     0.0134823645033309
 94     0.0314449216761156
 95     0.0063189704794914
 96     0.0216999709580966
 97     0.0009042828836383
 98     0.0471301473867448
 99     0.0367320314153909
 100     0.0015164664389905
 101     0.0425265621503382
 102     0.0182143024771784
 103     0.0145158642542013
 104     0.0794054681833292
 105     0.0011761230531804
 106     0.0645053209762306
 107     0.0479587061232474
 108     0.0029554941900882
 109     0.0918804156511196
 110     0.0326080761471335
 111     0.0486169583803824
 112     0.0977911379321777
 113     0.0025173957793179
 114     0.0617023978054548
 115     0.0446911114360251
 116     0.0035994256671853
 117     0.2270415416058029
 118     0.0235155618783361
 119     0.0284637856836309
 120     0.2570016404319203
 121     0.0066443035905785
 122     0.0790154930189296
 123     0.0586724154811601
 124     0.0082172915507629
 125     0.0037511124617755
 126     0.0011271685144122
 127     0.0018339287482459
 128     0.0016261348870822
 129     0.0036183959717343
 130     0.0007038932506048
 131     0.0028851682034944
 132     0.0016411864609050
 133     0.0093545365071751
 134     0.0008887073003785
 135     0.0008437532530061
 136     0.0008397070309462
 137     0.0116399267551582
 138     0.0015954913648947
 139     0.0010422930828107
 140     0.0008593367993351
 141     0.0113853096743834
 142     0.0007449462350092
 143     0.0015467896616004
 144     0.0000674903000230
 145     0.0104009160734438
 146     0.0003915371605825
 147     0.0016066795580488
 148     0.0000770957952003
 149     0.0514396569557777
 150     0.0019731047567881
 151     0.0750983770415046
 152     0.0031142271368451
 153     0.0230686627591834
 154     0.0179310152034746
 155     0.0127505935874713
 156     0.0096964727629676
 157     0.0051633345234116
 158     0.0102689358441550
 159     0.0039998744205003
 160     0.0161863091981754
 161     0.0039880587215530
 162     0.0193103417747451
 163     0.0249475781454147
 164     0.0058329809449765
 165     0.0055174671197901
 166     0.0163309414900044
 167     0.0096259843097849
 168     0.0043506934259672
 169     0.0221855523037560
 170     0.0162609366318613
 171     0.0104459388724217
 172     0.0153125810223580
 173     0.0117450670655380
 174     0.0067429530523474
 175     0.0071625826015466
 176     0.0179949685823391
 177     0.0182613227524117
 178     0.0139684160488766
 179     0.0117748587446905
 180     0.0054584506434519
 181     0.0099925880314160
 182     0.0108186043291292
 183     0.0100532133983918
 184     0.0042921117542769
