[Molden Format]
[Title]
[5D]
[Atoms] Angs
Au  1     79    2.88375798  3.32987696  8.24102644  
Au  2     79    4.32563794  5.82728496  8.24102644  
Au  3     79    5.76751697  3.32987696  8.24102644  
Au  4     79    4.32563794  4.16234599  10.59560542 
C   5     6     4.32564518  4.16130068  19.50063084 
C   6     6     4.32617961  4.16137192  22.31809329 
C   7     6     4.32545222  4.16137174  18.02806442 
C   8     6     4.32629476  4.16145739  23.79065952 
C   9     6     4.32411364  5.36079897  20.21760596 
C   10    6     4.32765102  5.36083769  21.60106568 
C   11    6     4.32747591  2.96183250  20.21765237 
C   12    6     4.32445827  2.96187128  21.60112097 
C   13    6     3.60109526  5.12023254  17.31331372 
C   14    6     5.05047240  5.12038778  24.50549709 
C   15    6     5.04971589  3.20271997  17.31294839 
C   16    6     3.60211901  3.20267515  24.50569338 
C   17    6     3.59786099  5.12228648  15.93054085 
C   18    6     5.05363597  5.12235614  25.88827294 
C   19    6     5.05294789  3.20123077  15.93017132 
C   20    6     3.59882099  3.20109593  25.88846732 
C   21    6     4.32544141  4.16192491  15.22071145 
C   22    6     4.32616192  4.16184896  26.59801551 
C   23    6     4.32555492  4.16224916  13.79890373 
C   24    6     4.32595433  4.16209622  28.01982306 
C   25    6     4.32563794  4.16234599  12.59560542 
C   26    6     4.32563794  4.16234599  29.22312143 
H   27    1     4.33856356  6.30663646  19.68704239 
H   28    1     4.31314275  6.30670623  22.13157251 
H   29    1     4.31283798  2.01596239  19.68714874 
H   30    1     4.33917080  2.01603148  22.13167586 
H   31    1     3.01624062  5.86149299  17.84692108 
H   32    1     5.63524070  5.86177375  23.97196785 
H   33    1     5.63453490  2.46121815  17.84626058 
H   34    1     3.01741533  2.46113516  23.97231001 
H   35    1     3.02716462  5.86911720  15.39024722 
H   36    1     5.62419574  5.86923583  26.42864448 
H   37    1     5.62363796  2.45461921  15.38956667 
H   38    1     3.02820712  2.45436972  26.42899260 
Au  39    79    4.32563794  4.16234599  31.22312143 
Au  40    79    5.76751697  3.32987696  33.57770041 
Au  41    79    4.32563794  5.82728496  33.57770041 
Au  42    79    2.88375798  3.32987696  33.57770041 
[GTO]
          1 0
 d           4   1.0000000000000000
   4.1122701249566029      -0.47332494084401033
  0.80618503785873696       0.44453585425802272
  0.44619161658050349       0.22009304110035216
  0.25552080427598067        1.7993341579764486E-002
 s           6   1.0000000000000000
   3.1357416824854494        7.6487877799347858E-003
   1.4695410569471776        5.0287489045723770E-002
  0.42917072702413200      -0.28573460385982991
  0.26896214478566322       -6.0418061133577304E-002
  0.16130109238815588       0.24171496990925084
  0.10196415776492572        4.6586097542082996E-002
 p           6   1.0000000000000000
   2.0508146749125000        9.7346018232745031E-003
  0.42724624910625003       -6.3165011496547019E-002
  0.25001928314999999       -5.7110495203722841E-002
  0.14045633395499998        5.7388149027348262E-002
   9.0689982652500001E-002   4.7898819711647861E-002
   5.7643027955625002E-002   4.3945147119338543E-003

          2 0
 d           4   1.0000000000000000
   4.1122701249566029      -0.47332494084401033
  0.80618503785873696       0.44453585425802272
  0.44619161658050349       0.22009304110035216
  0.25552080427598067        1.7993341579764486E-002
 s           6   1.0000000000000000
   3.1357416824854494        7.6487877799347858E-003
   1.4695410569471776        5.0287489045723770E-002
  0.42917072702413200      -0.28573460385982991
  0.26896214478566322       -6.0418061133577304E-002
  0.16130109238815588       0.24171496990925084
  0.10196415776492572        4.6586097542082996E-002
 p           6   1.0000000000000000
   2.0508146749125000        9.7346018232745031E-003
  0.42724624910625003       -6.3165011496547019E-002
  0.25001928314999999       -5.7110495203722841E-002
  0.14045633395499998        5.7388149027348262E-002
   9.0689982652500001E-002   4.7898819711647861E-002
   5.7643027955625002E-002   4.3945147119338543E-003

          3 0
 d           4   1.0000000000000000
   4.1122701249566029      -0.47332494084401033
  0.80618503785873696       0.44453585425802272
  0.44619161658050349       0.22009304110035216
  0.25552080427598067        1.7993341579764486E-002
 s           6   1.0000000000000000
   3.1357416824854494        7.6487877799347858E-003
   1.4695410569471776        5.0287489045723770E-002
  0.42917072702413200      -0.28573460385982991
  0.26896214478566322       -6.0418061133577304E-002
  0.16130109238815588       0.24171496990925084
  0.10196415776492572        4.6586097542082996E-002
 p           6   1.0000000000000000
   2.0508146749125000        9.7346018232745031E-003
  0.42724624910625003       -6.3165011496547019E-002
  0.25001928314999999       -5.7110495203722841E-002
  0.14045633395499998        5.7388149027348262E-002
   9.0689982652500001E-002   4.7898819711647861E-002
   5.7643027955625002E-002   4.3945147119338543E-003

          4 0
 d           4   1.0000000000000000
   4.1122701249566029      -0.47332494084401033
  0.80618503785873696       0.44453585425802272
  0.44619161658050349       0.22009304110035216
  0.25552080427598067        1.7993341579764486E-002
 s           6   1.0000000000000000
   3.1357416824854494        7.6487877799347858E-003
   1.4695410569471776        5.0287489045723770E-002
  0.42917072702413200      -0.28573460385982991
  0.26896214478566322       -6.0418061133577304E-002
  0.16130109238815588       0.24171496990925084
  0.10196415776492572        4.6586097542082996E-002
 p           6   1.0000000000000000
   2.0508146749125000        9.7346018232745031E-003
  0.42724624910625003       -6.3165011496547019E-002
  0.25001928314999999       -5.7110495203722841E-002
  0.14045633395499998        5.7388149027348262E-002
   9.0689982652500001E-002   4.7898819711647861E-002
   5.7643027955625002E-002   4.3945147119338543E-003

          5 0
 s           6   1.0000000000000000
   106.38971661757030       -9.8009151699919875E-002
   19.510792340428655      -0.13676085979760455
   5.4829535718846767      -0.13152364218142998
  0.78407453403153715       0.19871892812986372
  0.35586124621498083       0.18458182484227953
  0.16970821740424907        3.2280723842753281E-002
 p           6   1.0000000000000000
   19.697346208514816       0.46871300964462981
   5.1366673338425883       0.56702433552910014
   1.8379485147102486       0.57908791780781932
  0.76829761123302320       0.41523341391527901
  0.35131800475041969       0.15469126795368998
  0.16609075699863593        1.5897464808064834E-002

          6 0
 s           6   1.0000000000000000
   106.38971661757030       -9.8009151699919875E-002
   19.510792340428655      -0.13676085979760455
   5.4829535718846767      -0.13152364218142998
  0.78407453403153715       0.19871892812986372
  0.35586124621498083       0.18458182484227953
  0.16970821740424907        3.2280723842753281E-002
 p           6   1.0000000000000000
   19.697346208514816       0.46871300964462981
   5.1366673338425883       0.56702433552910014
   1.8379485147102486       0.57908791780781932
  0.76829761123302320       0.41523341391527901
  0.35131800475041969       0.15469126795368998
  0.16609075699863593        1.5897464808064834E-002

          7 0
 s           6   1.0000000000000000
   106.38971661757030       -9.8009151699919875E-002
   19.510792340428655      -0.13676085979760455
   5.4829535718846767      -0.13152364218142998
  0.78407453403153715       0.19871892812986372
  0.35586124621498083       0.18458182484227953
  0.16970821740424907        3.2280723842753281E-002
 p           6   1.0000000000000000
   19.697346208514816       0.46871300964462981
   5.1366673338425883       0.56702433552910014
   1.8379485147102486       0.57908791780781932
  0.76829761123302320       0.41523341391527901
  0.35131800475041969       0.15469126795368998
  0.16609075699863593        1.5897464808064834E-002

          8 0
 s           6   1.0000000000000000
   106.38971661757030       -9.8009151699919875E-002
   19.510792340428655      -0.13676085979760455
   5.4829535718846767      -0.13152364218142998
  0.78407453403153715       0.19871892812986372
  0.35586124621498083       0.18458182484227953
  0.16970821740424907        3.2280723842753281E-002
 p           6   1.0000000000000000
   19.697346208514816       0.46871300964462981
   5.1366673338425883       0.56702433552910014
   1.8379485147102486       0.57908791780781932
  0.76829761123302320       0.41523341391527901
  0.35131800475041969       0.15469126795368998
  0.16609075699863593        1.5897464808064834E-002

          9 0
 s           6   1.0000000000000000
   106.38971661757030       -9.8009151699919875E-002
   19.510792340428655      -0.13676085979760455
   5.4829535718846767      -0.13152364218142998
  0.78407453403153715       0.19871892812986372
  0.35586124621498083       0.18458182484227953
  0.16970821740424907        3.2280723842753281E-002
 p           6   1.0000000000000000
   19.697346208514816       0.46871300964462981
   5.1366673338425883       0.56702433552910014
   1.8379485147102486       0.57908791780781932
  0.76829761123302320       0.41523341391527901
  0.35131800475041969       0.15469126795368998
  0.16609075699863593        1.5897464808064834E-002

          10 0
 s           6   1.0000000000000000
   106.38971661757030       -9.8009151699919875E-002
   19.510792340428655      -0.13676085979760455
   5.4829535718846767      -0.13152364218142998
  0.78407453403153715       0.19871892812986372
  0.35586124621498083       0.18458182484227953
  0.16970821740424907        3.2280723842753281E-002
 p           6   1.0000000000000000
   19.697346208514816       0.46871300964462981
   5.1366673338425883       0.56702433552910014
   1.8379485147102486       0.57908791780781932
  0.76829761123302320       0.41523341391527901
  0.35131800475041969       0.15469126795368998
  0.16609075699863593        1.5897464808064834E-002

          11 0
 s           6   1.0000000000000000
   106.38971661757030       -9.8009151699919875E-002
   19.510792340428655      -0.13676085979760455
   5.4829535718846767      -0.13152364218142998
  0.78407453403153715       0.19871892812986372
  0.35586124621498083       0.18458182484227953
  0.16970821740424907        3.2280723842753281E-002
 p           6   1.0000000000000000
   19.697346208514816       0.46871300964462981
   5.1366673338425883       0.56702433552910014
   1.8379485147102486       0.57908791780781932
  0.76829761123302320       0.41523341391527901
  0.35131800475041969       0.15469126795368998
  0.16609075699863593        1.5897464808064834E-002

          12 0
 s           6   1.0000000000000000
   106.38971661757030       -9.8009151699919875E-002
   19.510792340428655      -0.13676085979760455
   5.4829535718846767      -0.13152364218142998
  0.78407453403153715       0.19871892812986372
  0.35586124621498083       0.18458182484227953
  0.16970821740424907        3.2280723842753281E-002
 p           6   1.0000000000000000
   19.697346208514816       0.46871300964462981
   5.1366673338425883       0.56702433552910014
   1.8379485147102486       0.57908791780781932
  0.76829761123302320       0.41523341391527901
  0.35131800475041969       0.15469126795368998
  0.16609075699863593        1.5897464808064834E-002

          13 0
 s           6   1.0000000000000000
   106.38971661757030       -9.8009151699919875E-002
   19.510792340428655      -0.13676085979760455
   5.4829535718846767      -0.13152364218142998
  0.78407453403153715       0.19871892812986372
  0.35586124621498083       0.18458182484227953
  0.16970821740424907        3.2280723842753281E-002
 p           6   1.0000000000000000
   19.697346208514816       0.46871300964462981
   5.1366673338425883       0.56702433552910014
   1.8379485147102486       0.57908791780781932
  0.76829761123302320       0.41523341391527901
  0.35131800475041969       0.15469126795368998
  0.16609075699863593        1.5897464808064834E-002

          14 0
 s           6   1.0000000000000000
   106.38971661757030       -9.8009151699919875E-002
   19.510792340428655      -0.13676085979760455
   5.4829535718846767      -0.13152364218142998
  0.78407453403153715       0.19871892812986372
  0.35586124621498083       0.18458182484227953
  0.16970821740424907        3.2280723842753281E-002
 p           6   1.0000000000000000
   19.697346208514816       0.46871300964462981
   5.1366673338425883       0.56702433552910014
   1.8379485147102486       0.57908791780781932
  0.76829761123302320       0.41523341391527901
  0.35131800475041969       0.15469126795368998
  0.16609075699863593        1.5897464808064834E-002

          15 0
 s           6   1.0000000000000000
   106.38971661757030       -9.8009151699919875E-002
   19.510792340428655      -0.13676085979760455
   5.4829535718846767      -0.13152364218142998
  0.78407453403153715       0.19871892812986372
  0.35586124621498083       0.18458182484227953
  0.16970821740424907        3.2280723842753281E-002
 p           6   1.0000000000000000
   19.697346208514816       0.46871300964462981
   5.1366673338425883       0.56702433552910014
   1.8379485147102486       0.57908791780781932
  0.76829761123302320       0.41523341391527901
  0.35131800475041969       0.15469126795368998
  0.16609075699863593        1.5897464808064834E-002

          16 0
 s           6   1.0000000000000000
   106.38971661757030       -9.8009151699919875E-002
   19.510792340428655      -0.13676085979760455
   5.4829535718846767      -0.13152364218142998
  0.78407453403153715       0.19871892812986372
  0.35586124621498083       0.18458182484227953
  0.16970821740424907        3.2280723842753281E-002
 p           6   1.0000000000000000
   19.697346208514816       0.46871300964462981
   5.1366673338425883       0.56702433552910014
   1.8379485147102486       0.57908791780781932
  0.76829761123302320       0.41523341391527901
  0.35131800475041969       0.15469126795368998
  0.16609075699863593        1.5897464808064834E-002

          17 0
 s           6   1.0000000000000000
   106.38971661757030       -9.8009151699919875E-002
   19.510792340428655      -0.13676085979760455
   5.4829535718846767      -0.13152364218142998
  0.78407453403153715       0.19871892812986372
  0.35586124621498083       0.18458182484227953
  0.16970821740424907        3.2280723842753281E-002
 p           6   1.0000000000000000
   19.697346208514816       0.46871300964462981
   5.1366673338425883       0.56702433552910014
   1.8379485147102486       0.57908791780781932
  0.76829761123302320       0.41523341391527901
  0.35131800475041969       0.15469126795368998
  0.16609075699863593        1.5897464808064834E-002

          18 0
 s           6   1.0000000000000000
   106.38971661757030       -9.8009151699919875E-002
   19.510792340428655      -0.13676085979760455
   5.4829535718846767      -0.13152364218142998
  0.78407453403153715       0.19871892812986372
  0.35586124621498083       0.18458182484227953
  0.16970821740424907        3.2280723842753281E-002
 p           6   1.0000000000000000
   19.697346208514816       0.46871300964462981
   5.1366673338425883       0.56702433552910014
   1.8379485147102486       0.57908791780781932
  0.76829761123302320       0.41523341391527901
  0.35131800475041969       0.15469126795368998
  0.16609075699863593        1.5897464808064834E-002

          19 0
 s           6   1.0000000000000000
   106.38971661757030       -9.8009151699919875E-002
   19.510792340428655      -0.13676085979760455
   5.4829535718846767      -0.13152364218142998
  0.78407453403153715       0.19871892812986372
  0.35586124621498083       0.18458182484227953
  0.16970821740424907        3.2280723842753281E-002
 p           6   1.0000000000000000
   19.697346208514816       0.46871300964462981
   5.1366673338425883       0.56702433552910014
   1.8379485147102486       0.57908791780781932
  0.76829761123302320       0.41523341391527901
  0.35131800475041969       0.15469126795368998
  0.16609075699863593        1.5897464808064834E-002

          20 0
 s           6   1.0000000000000000
   106.38971661757030       -9.8009151699919875E-002
   19.510792340428655      -0.13676085979760455
   5.4829535718846767      -0.13152364218142998
  0.78407453403153715       0.19871892812986372
  0.35586124621498083       0.18458182484227953
  0.16970821740424907        3.2280723842753281E-002
 p           6   1.0000000000000000
   19.697346208514816       0.46871300964462981
   5.1366673338425883       0.56702433552910014
   1.8379485147102486       0.57908791780781932
  0.76829761123302320       0.41523341391527901
  0.35131800475041969       0.15469126795368998
  0.16609075699863593        1.5897464808064834E-002

          21 0
 s           6   1.0000000000000000
   106.38971661757030       -9.8009151699919875E-002
   19.510792340428655      -0.13676085979760455
   5.4829535718846767      -0.13152364218142998
  0.78407453403153715       0.19871892812986372
  0.35586124621498083       0.18458182484227953
  0.16970821740424907        3.2280723842753281E-002
 p           6   1.0000000000000000
   19.697346208514816       0.46871300964462981
   5.1366673338425883       0.56702433552910014
   1.8379485147102486       0.57908791780781932
  0.76829761123302320       0.41523341391527901
  0.35131800475041969       0.15469126795368998
  0.16609075699863593        1.5897464808064834E-002

          22 0
 s           6   1.0000000000000000
   106.38971661757030       -9.8009151699919875E-002
   19.510792340428655      -0.13676085979760455
   5.4829535718846767      -0.13152364218142998
  0.78407453403153715       0.19871892812986372
  0.35586124621498083       0.18458182484227953
  0.16970821740424907        3.2280723842753281E-002
 p           6   1.0000000000000000
   19.697346208514816       0.46871300964462981
   5.1366673338425883       0.56702433552910014
   1.8379485147102486       0.57908791780781932
  0.76829761123302320       0.41523341391527901
  0.35131800475041969       0.15469126795368998
  0.16609075699863593        1.5897464808064834E-002

          23 0
 s           6   1.0000000000000000
   106.38971661757030       -9.8009151699919875E-002
   19.510792340428655      -0.13676085979760455
   5.4829535718846767      -0.13152364218142998
  0.78407453403153715       0.19871892812986372
  0.35586124621498083       0.18458182484227953
  0.16970821740424907        3.2280723842753281E-002
 p           6   1.0000000000000000
   19.697346208514816       0.46871300964462981
   5.1366673338425883       0.56702433552910014
   1.8379485147102486       0.57908791780781932
  0.76829761123302320       0.41523341391527901
  0.35131800475041969       0.15469126795368998
  0.16609075699863593        1.5897464808064834E-002

          24 0
 s           6   1.0000000000000000
   106.38971661757030       -9.8009151699919875E-002
   19.510792340428655      -0.13676085979760455
   5.4829535718846767      -0.13152364218142998
  0.78407453403153715       0.19871892812986372
  0.35586124621498083       0.18458182484227953
  0.16970821740424907        3.2280723842753281E-002
 p           6   1.0000000000000000
   19.697346208514816       0.46871300964462981
   5.1366673338425883       0.56702433552910014
   1.8379485147102486       0.57908791780781932
  0.76829761123302320       0.41523341391527901
  0.35131800475041969       0.15469126795368998
  0.16609075699863593        1.5897464808064834E-002

          25 0
 s           6   1.0000000000000000
   106.38971661757030       -9.8009151699919875E-002
   19.510792340428655      -0.13676085979760455
   5.4829535718846767      -0.13152364218142998
  0.78407453403153715       0.19871892812986372
  0.35586124621498083       0.18458182484227953
  0.16970821740424907        3.2280723842753281E-002
 p           6   1.0000000000000000
   19.697346208514816       0.46871300964462981
   5.1366673338425883       0.56702433552910014
   1.8379485147102486       0.57908791780781932
  0.76829761123302320       0.41523341391527901
  0.35131800475041969       0.15469126795368998
  0.16609075699863593        1.5897464808064834E-002

          26 0
 s           6   1.0000000000000000
   106.38971661757030       -9.8009151699919875E-002
   19.510792340428655      -0.13676085979760455
   5.4829535718846767      -0.13152364218142998
  0.78407453403153715       0.19871892812986372
  0.35586124621498083       0.18458182484227953
  0.16970821740424907        3.2280723842753281E-002
 p           6   1.0000000000000000
   19.697346208514816       0.46871300964462981
   5.1366673338425883       0.56702433552910014
   1.8379485147102486       0.57908791780781932
  0.76829761123302320       0.41523341391527901
  0.35131800475041969       0.15469126795368998
  0.16609075699863593        1.5897464808064834E-002

          27 0
 s           4   1.0000000000000000
   7.6119972070599680       0.18536103626168826
   1.3929017058802009       0.23771678223106302
  0.38696334625048251       0.18632205597323881
  0.12842965592697322        4.4589693726254674E-002
 s           7   1.0000000000000000
   10.256286070314902       -1.3186544678254319
  0.62279653258753898        1.6038777007695870
  0.23910076678539138       0.60132301017728140
   7.6119972070599680      -0.98090431986331261
   1.3929017058802009       -1.2579635035340533
  0.38696334625048251      -0.98598989990507979
  0.12842965592697322      -0.23596233641959516

          28 0
 s           4   1.0000000000000000
   7.6119972070599680       0.18536103626168826
   1.3929017058802009       0.23771678223106302
  0.38696334625048251       0.18632205597323881
  0.12842965592697322        4.4589693726254674E-002
 s           7   1.0000000000000000
   10.256286070314902       -1.3186544678254319
  0.62279653258753898        1.6038777007695870
  0.23910076678539138       0.60132301017728140
   7.6119972070599680      -0.98090431986331261
   1.3929017058802009       -1.2579635035340533
  0.38696334625048251      -0.98598989990507979
  0.12842965592697322      -0.23596233641959516

          29 0
 s           4   1.0000000000000000
   7.6119972070599680       0.18536103626168826
   1.3929017058802009       0.23771678223106302
  0.38696334625048251       0.18632205597323881
  0.12842965592697322        4.4589693726254674E-002
 s           7   1.0000000000000000
   10.256286070314902       -1.3186544678254319
  0.62279653258753898        1.6038777007695870
  0.23910076678539138       0.60132301017728140
   7.6119972070599680      -0.98090431986331261
   1.3929017058802009       -1.2579635035340533
  0.38696334625048251      -0.98598989990507979
  0.12842965592697322      -0.23596233641959516

          30 0
 s           4   1.0000000000000000
   7.6119972070599680       0.18536103626168826
   1.3929017058802009       0.23771678223106302
  0.38696334625048251       0.18632205597323881
  0.12842965592697322        4.4589693726254674E-002
 s           7   1.0000000000000000
   10.256286070314902       -1.3186544678254319
  0.62279653258753898        1.6038777007695870
  0.23910076678539138       0.60132301017728140
   7.6119972070599680      -0.98090431986331261
   1.3929017058802009       -1.2579635035340533
  0.38696334625048251      -0.98598989990507979
  0.12842965592697322      -0.23596233641959516

          31 0
 s           4   1.0000000000000000
   7.6119972070599680       0.18536103626168826
   1.3929017058802009       0.23771678223106302
  0.38696334625048251       0.18632205597323881
  0.12842965592697322        4.4589693726254674E-002
 s           7   1.0000000000000000
   10.256286070314902       -1.3186544678254319
  0.62279653258753898        1.6038777007695870
  0.23910076678539138       0.60132301017728140
   7.6119972070599680      -0.98090431986331261
   1.3929017058802009       -1.2579635035340533
  0.38696334625048251      -0.98598989990507979
  0.12842965592697322      -0.23596233641959516

          32 0
 s           4   1.0000000000000000
   7.6119972070599680       0.18536103626168826
   1.3929017058802009       0.23771678223106302
  0.38696334625048251       0.18632205597323881
  0.12842965592697322        4.4589693726254674E-002
 s           7   1.0000000000000000
   10.256286070314902       -1.3186544678254319
  0.62279653258753898        1.6038777007695870
  0.23910076678539138       0.60132301017728140
   7.6119972070599680      -0.98090431986331261
   1.3929017058802009       -1.2579635035340533
  0.38696334625048251      -0.98598989990507979
  0.12842965592697322      -0.23596233641959516

          33 0
 s           4   1.0000000000000000
   7.6119972070599680       0.18536103626168826
   1.3929017058802009       0.23771678223106302
  0.38696334625048251       0.18632205597323881
  0.12842965592697322        4.4589693726254674E-002
 s           7   1.0000000000000000
   10.256286070314902       -1.3186544678254319
  0.62279653258753898        1.6038777007695870
  0.23910076678539138       0.60132301017728140
   7.6119972070599680      -0.98090431986331261
   1.3929017058802009       -1.2579635035340533
  0.38696334625048251      -0.98598989990507979
  0.12842965592697322      -0.23596233641959516

          34 0
 s           4   1.0000000000000000
   7.6119972070599680       0.18536103626168826
   1.3929017058802009       0.23771678223106302
  0.38696334625048251       0.18632205597323881
  0.12842965592697322        4.4589693726254674E-002
 s           7   1.0000000000000000
   10.256286070314902       -1.3186544678254319
  0.62279653258753898        1.6038777007695870
  0.23910076678539138       0.60132301017728140
   7.6119972070599680      -0.98090431986331261
   1.3929017058802009       -1.2579635035340533
  0.38696334625048251      -0.98598989990507979
  0.12842965592697322      -0.23596233641959516

          35 0
 s           4   1.0000000000000000
   7.6119972070599680       0.18536103626168826
   1.3929017058802009       0.23771678223106302
  0.38696334625048251       0.18632205597323881
  0.12842965592697322        4.4589693726254674E-002
 s           7   1.0000000000000000
   10.256286070314902       -1.3186544678254319
  0.62279653258753898        1.6038777007695870
  0.23910076678539138       0.60132301017728140
   7.6119972070599680      -0.98090431986331261
   1.3929017058802009       -1.2579635035340533
  0.38696334625048251      -0.98598989990507979
  0.12842965592697322      -0.23596233641959516

          36 0
 s           4   1.0000000000000000
   7.6119972070599680       0.18536103626168826
   1.3929017058802009       0.23771678223106302
  0.38696334625048251       0.18632205597323881
  0.12842965592697322        4.4589693726254674E-002
 s           7   1.0000000000000000
   10.256286070314902       -1.3186544678254319
  0.62279653258753898        1.6038777007695870
  0.23910076678539138       0.60132301017728140
   7.6119972070599680      -0.98090431986331261
   1.3929017058802009       -1.2579635035340533
  0.38696334625048251      -0.98598989990507979
  0.12842965592697322      -0.23596233641959516

          37 0
 s           4   1.0000000000000000
   7.6119972070599680       0.18536103626168826
   1.3929017058802009       0.23771678223106302
  0.38696334625048251       0.18632205597323881
  0.12842965592697322        4.4589693726254674E-002
 s           7   1.0000000000000000
   10.256286070314902       -1.3186544678254319
  0.62279653258753898        1.6038777007695870
  0.23910076678539138       0.60132301017728140
   7.6119972070599680      -0.98090431986331261
   1.3929017058802009       -1.2579635035340533
  0.38696334625048251      -0.98598989990507979
  0.12842965592697322      -0.23596233641959516

          38 0
 s           4   1.0000000000000000
   7.6119972070599680       0.18536103626168826
   1.3929017058802009       0.23771678223106302
  0.38696334625048251       0.18632205597323881
  0.12842965592697322        4.4589693726254674E-002
 s           7   1.0000000000000000
   10.256286070314902       -1.3186544678254319
  0.62279653258753898        1.6038777007695870
  0.23910076678539138       0.60132301017728140
   7.6119972070599680      -0.98090431986331261
   1.3929017058802009       -1.2579635035340533
  0.38696334625048251      -0.98598989990507979
  0.12842965592697322      -0.23596233641959516

          39 0
 d           4   1.0000000000000000
   4.1122701249566029      -0.47332494084401033
  0.80618503785873696       0.44453585425802272
  0.44619161658050349       0.22009304110035216
  0.25552080427598067        1.7993341579764486E-002
 s           6   1.0000000000000000
   3.1357416824854494        7.6487877799347858E-003
   1.4695410569471776        5.0287489045723770E-002
  0.42917072702413200      -0.28573460385982991
  0.26896214478566322       -6.0418061133577304E-002
  0.16130109238815588       0.24171496990925084
  0.10196415776492572        4.6586097542082996E-002
 p           6   1.0000000000000000
   2.0508146749125000        9.7346018232745031E-003
  0.42724624910625003       -6.3165011496547019E-002
  0.25001928314999999       -5.7110495203722841E-002
  0.14045633395499998        5.7388149027348262E-002
   9.0689982652500001E-002   4.7898819711647861E-002
   5.7643027955625002E-002   4.3945147119338543E-003

          40 0
 d           4   1.0000000000000000
   4.1122701249566029      -0.47332494084401033
  0.80618503785873696       0.44453585425802272
  0.44619161658050349       0.22009304110035216
  0.25552080427598067        1.7993341579764486E-002
 s           6   1.0000000000000000
   3.1357416824854494        7.6487877799347858E-003
   1.4695410569471776        5.0287489045723770E-002
  0.42917072702413200      -0.28573460385982991
  0.26896214478566322       -6.0418061133577304E-002
  0.16130109238815588       0.24171496990925084
  0.10196415776492572        4.6586097542082996E-002
 p           6   1.0000000000000000
   2.0508146749125000        9.7346018232745031E-003
  0.42724624910625003       -6.3165011496547019E-002
  0.25001928314999999       -5.7110495203722841E-002
  0.14045633395499998        5.7388149027348262E-002
   9.0689982652500001E-002   4.7898819711647861E-002
   5.7643027955625002E-002   4.3945147119338543E-003

          41 0
 d           4   1.0000000000000000
   4.1122701249566029      -0.47332494084401033
  0.80618503785873696       0.44453585425802272
  0.44619161658050349       0.22009304110035216
  0.25552080427598067        1.7993341579764486E-002
 s           6   1.0000000000000000
   3.1357416824854494        7.6487877799347858E-003
   1.4695410569471776        5.0287489045723770E-002
  0.42917072702413200      -0.28573460385982991
  0.26896214478566322       -6.0418061133577304E-002
  0.16130109238815588       0.24171496990925084
  0.10196415776492572        4.6586097542082996E-002
 p           6   1.0000000000000000
   2.0508146749125000        9.7346018232745031E-003
  0.42724624910625003       -6.3165011496547019E-002
  0.25001928314999999       -5.7110495203722841E-002
  0.14045633395499998        5.7388149027348262E-002
   9.0689982652500001E-002   4.7898819711647861E-002
   5.7643027955625002E-002   4.3945147119338543E-003

          42 0
 d           4   1.0000000000000000
   4.1122701249566029      -0.47332494084401033
  0.80618503785873696       0.44453585425802272
  0.44619161658050349       0.22009304110035216
  0.25552080427598067        1.7993341579764486E-002
 s           6   1.0000000000000000
   3.1357416824854494        7.6487877799347858E-003
   1.4695410569471776        5.0287489045723770E-002
  0.42917072702413200      -0.28573460385982991
  0.26896214478566322       -6.0418061133577304E-002
  0.16130109238815588       0.24171496990925084
  0.10196415776492572        4.6586097542082996E-002
 p           6   1.0000000000000000
   2.0508146749125000        9.7346018232745031E-003
  0.42724624910625003       -6.3165011496547019E-002
  0.25001928314999999       -5.7110495203722841E-002
  0.14045633395499998        5.7388149027348262E-002
   9.0689982652500001E-002   4.7898819711647861E-002
   5.7643027955625002E-002   4.3945147119338543E-003

[MO]
 Sym= 1A
 Ene= -0.335908
 Spin= Alpha
 Occup= 2.000000
  1    -0.0000215397272035
  2    -0.0000080028773117
  3    -0.0000373251370963
  4    -0.0000132557895643
  5    -0.0000083646558875
  6    -0.0003023870588993
  7    -0.0002120297323993
  8    -0.0001248483125796
  9    -0.0001814913356946
 10     0.0000431572055920
 11     0.0000155762389525
 12     0.0000000223754288
 13     0.0000000213054110
 14    -0.0000084416824382
 15    -0.0003020518024227
 16     0.0000004497402684
 17     0.0002529440875027
 18    -0.0001841642663280
 19    -0.0000215441134944
 20    -0.0000079705008990
 21     0.0000373772023057
 22     0.0000132419265933
 23    -0.0000083880143877
 24    -0.0003025819218183
 25     0.0002115491770713
 26    -0.0001240530381184
 27    -0.0001838954598640
 28    -0.0000001687723674
 29     0.0000003872042040
 30    -0.0000000349685314
 31     0.0000012419680096
 32     0.0002772143525797
 33    -0.0010264983950445
 34     0.0000003100206299
 35     0.0000007490512517
 36    -0.0025852593300422
 37    -0.0785854873581591
 38     0.0000111031891568
 39    -0.0000169298383961
 40     0.0799355358645918
 41     0.0086623262810355
 42    -0.0000006651869329
 43     0.0000004038317001
 44    -0.0033428782710973
 45    -0.4297249695982564
 46     0.0000191374919898
 47    -0.0000508091866495
 48     0.1470743030290566
 49     0.0011964840696363
 50    -0.0000001554768472
 51     0.0000000775131041
 52    -0.0014961813563108
 53    -0.0068496099866789
 54     0.0009344993839903
 55     0.0061066749706685
 56     0.0224347915115317
 57     0.0105705904039616
 58     0.0001042741564969
 59    -0.0022209367702124
 60    -0.0009236319134506
 61    -0.0068281686269536
 62    -0.0009264236836134
 63    -0.0061045946968055
 64     0.0224213741136647
 65     0.0105700850369187
 66    -0.0001047386038040
 67     0.0022205963942720
 68    -0.0009270025010793
 69    -0.3876813247929400
 70    -0.0890813900003540
 71     0.1181820696036799
 72     0.0606583435924993
 73     0.0000610687448235
 74    -0.0000676474063461
 75    -0.0000433279828739
 76    -0.0003565724721444
 77    -0.3875678138812099
 78     0.0890707609993231
 79    -0.1182146436583816
 80     0.0605963709867002
 81     0.0000609617229555
 82     0.0000675667486803
 83     0.0000433088762003
 84    -0.0003565022515493
 85    -0.3377608632657871
 86    -0.0772393962814877
 87     0.1019687936610452
 88    -0.0890425450388992
 89    -0.0001396759875614
 90     0.0000198144407722
 91     0.0000313788566466
 92     0.0000257627940400
 93    -0.3376860071370787
 94     0.0772351150086873
 95    -0.1019399897697884
 96    -0.0890537783577798
 97    -0.0001396669322034
 98    -0.0000198296993601
 99    -0.0000313603196196
 100     0.0000257829422041
 101    -0.3256595343461683
 102     0.0000136031396391
 103     0.0000195079872379
 104    -0.1480135467181501
 105    -0.0001042849138012
 106    -0.0000000081749411
 107     0.0000000079928090
 108     0.0000506277041549
 109    -0.0250006541373861
 110     0.0000045030303519
 111     0.0000106299235079
 112    -0.0550087524707787
 113    -0.0000063028878161
 114    -0.0000000024029164
 115     0.0000000026912321
 116     0.0000157894790826
 117     0.0127464928548784
 118     0.0000000653045984
 119     0.0000008616826095
 120    -0.0005894429453714
 121     0.0000033078332227
 122     0.0000000002246529
 123    -0.0000000000063898
 124     0.0000002571017854
 125    -0.0085265539431134
 126    -0.0054222585765866
 127     0.0022628310400717
 128     0.0005311942379249
 129    -0.0085119072165402
 130    -0.0054185860697539
 131     0.0022622717393570
 132     0.0005317457876504
 133    -0.0762838531684353
 134    -0.0168602736962397
 135     0.0001500639396733
 136     0.0002620720564096
 137    -0.0762456689788706
 138    -0.0168588906495647
 139     0.0001499944128760
 140     0.0002620499968249
 141    -0.0571567255364737
 142    -0.0165214655479949
 143    -0.0000167136807303
 144    -0.0000149648798733
 145    -0.0571331175701880
 146    -0.0165206986685115
 147    -0.0000167092415538
 148    -0.0000149723135508
 149     0.0000000000575168
 150     0.0000000003960120
 151    -0.0000000000425670
 152    -0.0000000013652436
 153     0.0000000401223166
 154    -0.0000003673719429
 155    -0.0000000004223539
 156     0.0000000004299419
 157     0.0000008707755743
 158     0.0000000076133080
 159    -0.0000000029686406
 160    -0.0000000131774300
 161     0.0000000049422861
 162    -0.0000000025172002
 163    -0.0000001017769296
 164     0.0000000703060038
 165    -0.0000000415157968
 166     0.0000000582750851
 167    -0.0000000152666543
 168     0.0000000057723874
 169     0.0000000000253216
 170    -0.0000000000273109
 171    -0.0000000025652838
 172    -0.0000001018477323
 173    -0.0000000005357558
 174     0.0000000834405365
 175     0.0000000607167684
 176     0.0000000076203690
 177    -0.0000000029279620
 178     0.0000000132399973
 179    -0.0000000049259319
 180    -0.0000000025467699
 181    -0.0000001020426544
 182    -0.0000000697353093
 183    -0.0000000405701722
 184     0.0000000611955706
 Sym= 2A
 Ene= -0.317810
 Spin= Alpha
 Occup= 2.000000
  1     0.0000053693001458
  2     0.0000024984034738
  3     0.0000092887596095
  4     0.0000043546828236
  5     0.0000042489780514
  6     0.0000173964334992
  7    -0.0000083911023737
  8    -0.0000049026135730
  9     0.0000006166753300
 10    -0.0000107389079756
 11    -0.0000050015742978
 12    -0.0000000035748848
 13    -0.0000000066861515
 14     0.0000042724878081
 15     0.0000175741006680
 16    -0.0000001316153682
 17     0.0000103682101913
 18     0.0000013758095543
 19     0.0000053737670827
 20     0.0000024892850891
 21    -0.0000093035187754
 22    -0.0000043522287290
 23     0.0000042533936774
 24     0.0000174975042997
 25     0.0000085264912169
 26    -0.0000051313946066
 27     0.0000015576489338
 28     0.0000000729610102
 29     0.0000000480367530
 30     0.0000000255552920
 31     0.0000001584278555
 32     0.0008570196718457
 33    -0.0008797918363823
 34    -0.0000002370754316
 35    -0.0000005147594312
 36    -0.0002440310594841
 37     0.4756067021443125
 38    -0.0000037436638785
 39     0.0000588671342033
 40    -0.0455547870685563
 41     0.0930266956616379
 42    -0.0000109523723082
 43     0.0000117391824622
 44    -0.0590565356023640
 45     0.4332424290342130
 46    -0.0000075526173847
 47     0.0000396415713114
 48     0.1288986129794308
 49    -0.0018847836693230
 50    -0.0000016428710766
 51     0.0000012200328463
 52    -0.0147802109194084
 53     0.2372477617547266
 54    -0.0009352063235415
 55    -0.1085162737193986
 56    -0.0432208700877911
 57     0.1073324449667582
 58    -0.0002877726908457
 59    -0.0493167679766144
 60    -0.0526741640858869
 61     0.2370974801325258
 62     0.0009170625683804
 63     0.1085108444273035
 64    -0.0432127263764802
 65     0.1072623230778232
 66     0.0002671534090988
 67     0.0493150602769336
 68    -0.0526406731641495
 69     0.1133452643237337
 70     0.0395743902511425
 71    -0.0506781141795345
 72     0.1615666650150952
 73    -0.0059133083034500
 74     0.0013879798249865
 75     0.0019962490642042
 76    -0.0024428289551525
 77     0.1132149982718181
 78    -0.0395578079878900
 79     0.0506331545414890
 80     0.1615594601774133
 81    -0.0059140554196006
 82    -0.0013887559396369
 83    -0.0019961481689946
 84    -0.0024413329355840
 85    -0.2259369048676161
 86    -0.0463732989788545
 87     0.0614884673904698
 88     0.0703448145856511
 89    -0.0044363836359409
 90     0.0010091537967736
 91     0.0013598020733767
 92     0.0017391405246279
 93    -0.2259768588352230
 94     0.0463681724153564
 95    -0.0615118699748120
 96     0.0702886934937599
 97    -0.0044358699511482
 98    -0.0010094000463270
 99    -0.0013591713254659
 100     0.0017394555517800
 101    -0.3568929822427601
 102    -0.0000007426716528
 103     0.0000143107428734
 104    -0.0373541940018836
 105    -0.0036466130717124
 106    -0.0000002597804783
 107     0.0000002618544958
 108     0.0021563858974733
 109    -0.0942455322065063
 110     0.0000062178648220
 111     0.0000212073881698
 112    -0.0862790462753431
 113    -0.0000898486205393
 114    -0.0000000785851857
 115     0.0000000825693948
 116     0.0005527961449194
 117     0.0037283145227589
 118     0.0000010254311438
 119     0.0000038230783793
 120    -0.0155448176134922
 121     0.0001827041673649
 122     0.0000000199442172
 123    -0.0000000127519211
 124    -0.0000344708460687
 125     0.0656019821565015
 126     0.0138679990601990
 127     0.0125411801830617
 128     0.0075719881975706
 129     0.0655364909049583
 130     0.0138656818388709
 131     0.0125226650328860
 132     0.0075699037435813
 133     0.0600402849381272
 134     0.0040755704296965
 135    -0.0004230721900984
 136     0.0003422413017434
 137     0.0599773157320969
 138     0.0040726331374492
 139    -0.0004237680997719
 140     0.0003418383512128
 141    -0.0693565615522222
 142    -0.0042310782433628
 143    -0.0006030304444807
 144    -0.0004013362830421
 145    -0.0693649919541038
 146    -0.0042332467467437
 147    -0.0006028891011501
 148    -0.0004013432102539
 149     0.0000000027820776
 150     0.0000000107487927
 151    -0.0000000012444578
 152    -0.0000000361100234
 153     0.0000035728447247
 154    -0.0000117245484149
 155    -0.0000000144722125
 156     0.0000000187558561
 157     0.0000434704005429
 158     0.0000003554623834
 159    -0.0000001390204311
 160    -0.0000006156988515
 161     0.0000002316944933
 162    -0.0000001557877269
 163    -0.0000054213869029
 164     0.0000037836804867
 165    -0.0000022297930138
 166     0.0000033913803262
 167    -0.0000007121722694
 168     0.0000002707970680
 169     0.0000000005725017
 170    -0.0000000007489304
 171    -0.0000001578276400
 172    -0.0000054189390448
 173    -0.0000000145806163
 174     0.0000045019810974
 175     0.0000034691232062
 176     0.0000003555990709
 177    -0.0000001379277828
 178     0.0000006170730168
 179    -0.0000002312844320
 180    -0.0000001567297682
 181    -0.0000054291239728
 182    -0.0000037674881278
 183    -0.0000022036930721
 184     0.0000034745077127
 Sym= 3A
 Ene= -0.311599
 Spin= Alpha
 Occup= 2.000000
  1    -0.0000086715983612
  2     0.0000052802195136
  3     0.0000040265316001
  4    -0.0000028490882307
  5    -0.0000020421163453
  6    -0.0000151119784636
  7     0.0000600088499239
  8    -0.0001003213610455
  9    -0.0000271243850389
 10     0.0000055204510435
 11    -0.0000011033943028
 12     0.0000058016593264
 13    -0.0000036286059937
 14    -0.0000128893813534
 15    -0.0000980252012848
 16     0.0000709814528488
 17    -0.0000137109108984
 18    -0.0001698944730576
 19    -0.0000000359736664
 20     0.0000014292467498
 21    -0.0000073788678392
 22     0.0000022645321319
 23     0.0000148519125901
 24     0.0001136084067711
 25    -0.0000077484312749
 26    -0.0000470509070908
 27     0.0001963010066003
 28    -0.0001302784414905
 29    -0.0000015376125842
 30     0.0000987313584805
 31     0.0000011507696531
 32     0.0000002376269994
 33     0.0000000961305474
 34    -0.0005767060035607
 35     0.0007605012940982
 36    -0.0000007394220209
 37     0.0000336418626207
 38     0.0272477230554592
 39    -0.0673040757491071
 40    -0.0000641448598511
 41    -0.0000490577165326
 42     0.0005590224532231
 43    -0.0044726426235616
 44     0.0000158145344956
 45     0.0001696966371372
 46     0.1430893626832383
 47    -0.1967150375946426
 48    -0.0000470135305219
 49    -0.0000112512638176
 50    -0.0000025577114957
 51    -0.0006015949995931
 52     0.0000097128421300
 53    -0.0558082665142206
 54     0.0071718473583884
 55    -0.0008860517582708
 56     0.0167999771887017
 57    -0.0152268685049963
 58     0.0013337851362284
 59    -0.0018085480828635
 60     0.0118042785279391
 61     0.0557444148605950
 62     0.0071641497039702
 63    -0.0008895823491202
 64    -0.0168493651174484
 65     0.0151311140871318
 66     0.0013288912423626
 67    -0.0018369938322830
 68    -0.0117897673789361
 69    -0.4529846452937328
 70     0.0250129465037145
 71    -0.0337792206922368
 72     0.0851684167649267
 73    -0.0002800408842218
 74     0.0000760325825885
 75    -0.0000534302379337
 76     0.0001528017444561
 77     0.4531014858653365
 78     0.0249563785786522
 79    -0.0336569327965191
 80    -0.0851038160123285
 81     0.0002769025894353
 82     0.0000745163808137
 83    -0.0000549679684995
 84    -0.0001464730173752
 85    -0.4049305674547107
 86     0.0229156968230697
 87    -0.0304104314815338
 88    -0.1107471452092603
 89    -0.0000396244760562
 90     0.0000087617498111
 91    -0.0000155551050884
 92     0.0000538905963955
 93     0.4048617987912574
 94     0.0229137378925349
 95    -0.0304446512791497
 96     0.1107831822633635
 97     0.0000425948738148
 98     0.0000090979611150
 99    -0.0000150618750449
 100    -0.0000537245405503
 101    -0.0000508159308715
 102     0.1174020635973129
 103    -0.1550790499943511
 104    -0.0000237231083660
 105     0.0000014618279195
 106     0.0000012780650916
 107    -0.0000096638398895
 108    -0.0000004021904893
 109    -0.0000173211255399
 110     0.0196737858492098
 111    -0.0259706476584909
 112    -0.0000191854993222
 113     0.0000002329749583
 114     0.0000009076254710
 115    -0.0000002936692910
 116    -0.0000003018887796
 117     0.0000021365990665
 118     0.0037996680445919
 119    -0.0050143836438497
 120    -0.0000023015298271
 121    -0.0000000430397130
 122     0.0000001580554237
 123    -0.0000000392123000
 124    -0.0000000282557860
 125    -0.0318528809878323
 126    -0.0052045995913878
 127    -0.0041658505034101
 128    -0.0011393377511250
 129     0.0318363172160048
 130     0.0052039171510294
 131     0.0041434312989881
 132     0.0011355551266983
 133    -0.1758185027319151
 134    -0.0060240115129848
 135    -0.0001700825295140
 136    -0.0000730827200952
 137     0.1758373199378552
 138     0.0060273217286082
 139     0.0001673684055134
 140     0.0000716541027899
 141    -0.1432451380919072
 142    -0.0061049317437788
 143    -0.0000097560050124
 144     0.0000005726540611
 145     0.1431981893287722
 146     0.0061067256038250
 147     0.0000104868785562
 148    -0.0000004682030069
 149     0.0000000005450666
 150    -0.0000000000304104
 151    -0.0000000035676487
 152     0.0000000000533011
 153    -0.0000000025750277
 154     0.0000000044112211
 155    -0.0000000221823275
 156     0.0000000150263146
 157    -0.0000000044033103
 158    -0.0000000000962567
 159     0.0000000000040033
 160     0.0000000002310862
 161     0.0000000000347443
 162     0.0000000004886730
 163     0.0000000038605345
 164     0.0000000000683190
 165    -0.0000000002406425
 166    -0.0000000063254465
 167    -0.0000000001155065
 168    -0.0000000000239898
 169    -0.0000000002381402
 170    -0.0000000001532954
 171    -0.0000000002931675
 172    -0.0000000016334912
 173     0.0000000028504956
 174    -0.0000000005692103
 175     0.0000000030020862
 176     0.0000000002640881
 177     0.0000000001623647
 178    -0.0000000000833556
 179    -0.0000000000604703
 180    -0.0000000002089183
 181    -0.0000000011534846
 182     0.0000000020461693
 183    -0.0000000022286249
 184     0.0000000027649112
 Sym= 4A
 Ene= -0.310303
 Spin= Alpha
 Occup= 2.000000
  1     0.0000114856742974
  2     0.0000054393630681
  3     0.0000198827448634
  4     0.0000093422689781
  5     0.0000050583030444
  6     0.0000879250517486
  7     0.0000365827401097
  8     0.0000215913844678
  9     0.0000287617029042
 10    -0.0000229712775979
 11    -0.0000108034040800
 12    -0.0000000046501479
 13    -0.0000000064698861
 14     0.0000050961203476
 15     0.0000879872567146
 16    -0.0000001587389958
 17    -0.0000433049880948
 18     0.0000297347150997
 19     0.0000114884342349
 20     0.0000054304945451
 21    -0.0000198966929095
 22    -0.0000093397900343
 23     0.0000050609523932
 24     0.0000880144173975
 25    -0.0000364371256476
 26     0.0000213250416545
 27     0.0000297361176794
 28     0.0000001613439432
 29     0.0000000162914887
 30     0.0000000200156384
 31     0.0000000684583893
 32     0.0010927581580330
 33    -0.0006241573381160
 34    -0.0000001616576576
 35    -0.0000008351492841
 36     0.0003850776886816
 37    -0.2013451403655311
 38    -0.0000442246998072
 39    -0.0000217612825748
 40    -0.2081694520974044
 41    -0.3416600014442501
 42     0.0000236352045726
 43    -0.0000364263406680
 44     0.1153122251982241
 45     0.2420754636071905
 46    -0.0000427610416115
 47     0.0000399353159253
 48    -0.0567049932237680
 49    -0.0737339780846819
 50     0.0000060118509381
 51    -0.0000059982132462
 52     0.0668331899371729
 53    -0.2795200456165824
 54    -0.0014141440047899
 55     0.1023267474476426
 56    -0.0916952765969914
 57    -0.3103959738998621
 58     0.0001576879967274
 59     0.1161469742967757
 60     0.0548270635153668
 61    -0.2793805444312984
 62     0.0013784530689059
 63    -0.1023334958610873
 64    -0.0916324693899083
 65    -0.3102361807691161
 66    -0.0001346029163894
 67    -0.1161454992576816
 68     0.0547978059141321
 69     0.1311754826726653
 70     0.0300833709611337
 71    -0.0411958322391875
 72     0.0812098784670944
 73    -0.0083028337923069
 74     0.0045006942124218
 75     0.0046774445513644
 76     0.0214505081691542
 77     0.1309731099906724
 78    -0.0300970431241157
 79     0.0411766244424008
 80     0.0812610938125888
 81    -0.0082933678747615
 82    -0.0044967434635366
 83    -0.0046759101929502
 84     0.0214462434197055
 85    -0.1591460692217284
 86    -0.0420708744070332
 87     0.0553397934947450
 88     0.0979201107412526
 89     0.0117532409081791
 90    -0.0015179411939179
 91    -0.0021709915538119
 92     0.0000004447467316
 93    -0.1593157390280385
 94     0.0420542249955898
 95    -0.0553689555498313
 96     0.0978473051327246
 97     0.0117532565907845
 98     0.0015186440055688
 99     0.0021701822055593
 100    -0.0000017567437002
 101    -0.3398684476030326
 102    -0.0000241728857762
 103     0.0000328612794339
 104     0.0002234039013780
 105     0.0115100090563529
 106     0.0000005887869320
 107    -0.0000005515702747
 108    -0.0034879256968946
 109    -0.1169622927897818
 110     0.0000028517060193
 111     0.0000272656634706
 112    -0.0894949395041939
 113     0.0017203823088992
 114     0.0000003547666281
 115    -0.0000003955457564
 116    -0.0023452721071190
 117    -0.0028371370975347
 118     0.0000007902932262
 119     0.0000056303938163
 120    -0.0220702914547093
 121    -0.0003691540290677
 122     0.0000000078744084
 123    -0.0000000276760018
 124    -0.0001954505753879
 125    -0.0455039712788117
 126    -0.0088514773851490
 127    -0.0624214547363800
 128    -0.0138788136662075
 129    -0.0454676989581154
 130    -0.0088523372653193
 131    -0.0623678891621576
 132    -0.0138779023939174
 133     0.0464464496934069
 134    -0.0009858646980465
 135    -0.0083572553786650
 136    -0.0042004311639890
 137     0.0463690540171259
 138    -0.0009866622323968
 139    -0.0083512185774475
 140    -0.0041994026193120
 141    -0.0560966724047599
 142    -0.0022850012095858
 143     0.0027983594491503
 144     0.0004588957633095
 145    -0.0561550352529231
 146    -0.0022878044729610
 147     0.0027981118271006
 148     0.0004591163932532
 149    -0.0000000018283017
 150    -0.0000000094000912
 151     0.0000000006612964
 152     0.0000000315837166
 153    -0.0000207860571165
 154     0.0000343863862051
 155     0.0000000005963641
 156    -0.0000000085350679
 157    -0.0000445255641170
 158    -0.0000001775524444
 159     0.0000000660229533
 160     0.0000003076434900
 161    -0.0000001068230843
 162     0.0000000179568243
 163     0.0000041935900612
 164    -0.0000033323307650
 165     0.0000019631472782
 166    -0.0000024885108614
 167     0.0000003556368012
 168    -0.0000001262646257
 169    -0.0000000002962138
 170     0.0000000002829393
 171     0.0000000193113261
 172     0.0000041860733036
 173     0.0000000061643151
 174    -0.0000039758929093
 175    -0.0000025191343262
 176    -0.0000001774247533
 177     0.0000000655610861
 178    -0.0000003080135708
 179     0.0000001065800038
 180     0.0000000185370540
 181     0.0000041954854988
 182     0.0000033254223179
 183     0.0000019520669735
 184    -0.0000025134936442
 Sym= 5A
 Ene= -0.299431
 Spin= Alpha
 Occup= 2.000000
  1    -0.0000093987197275
  2    -0.0000046340627701
  3    -0.0000162787698137
  4    -0.0000079222216164
  5    -0.0000027594201070
  6    -0.0000905206197886
  7    -0.0000493921710085
  8    -0.0000290765967087
  9    -0.0000311845115565
 10     0.0000187970762336
 11     0.0000091799195240
 12     0.0000000004601648
 13     0.0000000024002735
 14    -0.0000027811108521
 15    -0.0000904219950113
 16     0.0000000372260126
 17     0.0000587927215909
 18    -0.0000315928491947
 19    -0.0000094000970391
 20    -0.0000046310951286
 21     0.0000162820340381
 22     0.0000079218613877
 23    -0.0000027615057496
 24    -0.0000905637842875
 25     0.0000493449362765
 26    -0.0000290067738739
 27    -0.0000314944208476
 28    -0.0000001164595293
 29    -0.0000000018079812
 30    -0.0000000322317430
 31    -0.0000000240198129
 32    -0.0006508434673641
 33     0.0000473207085524
 34     0.0000001208737864
 35     0.0000004337574559
 36    -0.0006520134488083
 37     0.1460327943794635
 38     0.0000046651150967
 39     0.0000120849789577
 40     0.0188010257691605
 41    -0.3036106661389086
 42    -0.0000058866457893
 43    -0.0000309882480175
 44    -0.1123746077279963
 45    -0.0199207969050062
 46     0.0000077082382967
 47     0.0000014288048556
 48     0.0735069988028026
 49    -0.5189801073539425
 50    -0.0000012542504746
 51    -0.0000333723028539
 52    -0.0480258891027884
 53     0.0845171304895844
 54     0.0003238829082522
 55    -0.0277511085412413
 56    -0.0376648965249128
 57    -0.0889784376054668
 58    -0.0010481262314729
 59     0.0461239926017117
 60    -0.0868903192843603
 61     0.0844940419658415
 62    -0.0003370201159095
 63     0.0277477609433431
 64    -0.0376450354966586
 65    -0.0889258908857955
 66     0.0010226057633983
 67    -0.0461259889564152
 68    -0.0868612847182419
 69    -0.0709668124296191
 70    -0.0043807157071997
 71     0.0071937924134163
 72     0.0056558194641064
 73    -0.3336106127168714
 74     0.0866366222348533
 75     0.1138659660457027
 76     0.0000854648987341
 77    -0.0709709785354790
 78     0.0043877586124484
 79    -0.0071922295629131
 80     0.0056436784311720
 81    -0.3335287327840925
 82    -0.0866235500494870
 83    -0.1138762400305313
 84     0.0001168378008400
 85     0.0250533144228671
 86     0.0180835688766969
 87    -0.0236638032217550
 88    -0.0602801015811759
 89    -0.2317114197510318
 90     0.0590765100099187
 91     0.0778932684895657
 92     0.0715190377910871
 93     0.0250619674064466
 94    -0.0180786498036844
 95     0.0236899110250496
 96    -0.0602713689739157
 97    -0.2316511787748300
 98    -0.0590781269730480
 99    -0.0778773140699943
 100     0.0715140677221628
 101     0.1425350920566903
 102     0.0000032654353444
 103     0.0000033953899713
 104    -0.0267190481638585
 105    -0.2378843949213685
 106    -0.0000148081730854
 107     0.0000063103422674
 108     0.1090455999965610
 109     0.0732449455697722
 110    -0.0000029973415455
 111    -0.0000111605994417
 112     0.0414988537958552
 113    -0.0195754258555226
 114    -0.0000065794844618
 115     0.0000061493096405
 116     0.0447784726199379
 117     0.0089784173726146
 118    -0.0000011400332754
 119    -0.0000029516093034
 120     0.0165449941477410
 121     0.0129184291523047
 122     0.0000009773324810
 123    -0.0000006445764496
 124    -0.0003068139941215
 125     0.0290020910474267
 126     0.0002769245578874
 127    -0.0413958231743120
 128    -0.0060520952171418
 129     0.0289882700021236
 130     0.0002776483029526
 131    -0.0413660739614423
 132    -0.0060513177773255
 133    -0.0203369879315699
 134     0.0008875188062937
 135    -0.0778209909419824
 136    -0.0166737338774394
 137    -0.0203418764501748
 138     0.0008872025629279
 139    -0.0777877367119217
 140    -0.0166734659710272
 141     0.0128538239927847
 142     0.0003541869951684
 143    -0.0362892958850766
 144    -0.0128964210524617
 145     0.0128578053349570
 146     0.0003541191312079
 147    -0.0362714957889503
 148    -0.0128957343850205
 149     0.0000001221648493
 150     0.0000003331043754
 151    -0.0000000533067372
 152    -0.0000011068583889
 153     0.0005368143051939
 154    -0.0006774940360375
 155    -0.0000004148755811
 156     0.0000007715909835
 157     0.0020599228923173
 158     0.0000111852600242
 159    -0.0000044193698683
 160    -0.0000193813794265
 161     0.0000072972236319
 162    -0.0000049678236690
 163    -0.0002450703303372
 164     0.0001795555613964
 165    -0.0001057402716806
 166     0.0001597661679965
 167    -0.0000224067882176
 168     0.0000085484266885
 169     0.0000000130086094
 170    -0.0000000203478134
 171    -0.0000050478250226
 172    -0.0002447910811280
 173    -0.0000004054582624
 174     0.0002138563881996
 175     0.0001622325772807
 176     0.0000111820206941
 177    -0.0000043888100299
 178     0.0000194016189432
 179    -0.0000072844940111
 180    -0.0000049971952236
 181    -0.0002452769331340
 182    -0.0001790863702269
 183    -0.0001050038770998
 184     0.0001620555247051
 Sym= 6A
 Ene= -0.294115
 Spin= Alpha
 Occup= 2.000000
  1     0.0000261585015418
  2     0.0000131527944399
  3     0.0000453111715809
  4     0.0000224760796377
  5     0.0000069673023033
  6     0.0002665984898727
  7     0.0001516046820546
  8     0.0000892225504223
  9     0.0000893258074325
 10    -0.0000523123483042
 11    -0.0000260473339749
 12     0.0000000009253982
 13    -0.0000000038244179
 14     0.0000070186290655
 15     0.0002662069062771
 16    -0.0000000122512195
 17    -0.0001806089868427
 18     0.0000900846324737
 19     0.0000261605302873
 20     0.0000131485365593
 21    -0.0000453127822322
 22    -0.0000224763309300
 23     0.0000069704711542
 24     0.0002666728487237
 25    -0.0001515583038488
 26     0.0000891823298981
 27     0.0000896620585826
 28     0.0000003470936857
 29     0.0000000081080445
 30     0.0000001031803955
 31     0.0000000769423192
 32     0.0016378530852055
 33     0.0002350428501407
 34    -0.0000002609960718
 35    -0.0000011209113886
 36     0.0020820320000999
 37    -0.3195359523501808
 38     0.0000060421266903
 39    -0.0000236911488377
 40     0.0423902775409292
 41     0.3455492676773021
 42    -0.0000084830556166
 43     0.0000261761451931
 44    -0.0332147179422281
 45    -0.0680176917515407
 46    -0.0000114316369545
 47    -0.0000085819549675
 48    -0.1862161263862408
 49    -0.0006988530546687
 50    -0.0000110123554655
 51    -0.0000132102269349
 52    -0.1776393801681086
 53    -0.0921767071202555
 54    -0.0008903543645943
 55     0.0523257681823816
 56     0.1173120528048712
 57     0.1957937572354635
 58    -0.0004730128496586
 59    -0.0734154395225469
 60     0.0707521980472174
 61    -0.0921512398358392
 62     0.0009347818212567
 63    -0.0523139504482961
 64     0.1172647436089315
 65     0.1957128717966962
 66     0.0004968129854140
 67     0.0734187242024216
 68     0.0707316993899396
 69     0.1616102214635439
 70    -0.0093535537473168
 71     0.0096194932231988
 72    -0.0618831097824406
 73    -0.1397683166603709
 74     0.0262624836160520
 75     0.0368735691430906
 76    -0.0913978272638736
 77     0.1616482420944585
 78     0.0093345049002080
 79    -0.0096056077532018
 80    -0.0618601139560729
 81    -0.1397353708203344
 82    -0.0262603032064714
 83    -0.0368955898816996
 84    -0.0913701588527460
 85    -0.0012288631397067
 86    -0.0451761877428344
 87     0.0592309537773514
 88     0.1514907515329496
 89    -0.2230570244493029
 90     0.0500141225436895
 91     0.0663129271802783
 92     0.0226525564996248
 93    -0.0012438384145003
 94     0.0451639187677924
 95    -0.0592975522162880
 96     0.1514775564312734
 97    -0.2230070485458402
 98    -0.0500138112172755
 99    -0.0663082741933939
 100     0.0226577737261040
 101    -0.3185170674162802
 102    -0.0000097380816177
 103    -0.0000142600281447
 104     0.0915167742582429
 105    -0.2653200439458406
 106    -0.0000130107916684
 107     0.0000030535280208
 108     0.0805940905306075
 109    -0.1992619344837550
 110     0.0000068604228597
 111     0.0000267618620985
 112    -0.0947849489291314
 113    -0.0448030739834619
 114    -0.0000085577413311
 115     0.0000085071663655
 116     0.0577816662769463
 117    -0.0346981280091207
 118     0.0000033917189795
 119     0.0000080335038354
 120    -0.0488727378399407
 121     0.0099394971706969
 122    -0.0000001858242244
 123     0.0000004614784016
 124     0.0052777572527833
 125    -0.0419678388202762
 126     0.0009393861681206
 127     0.0629306908050074
 128     0.0031478287142467
 129    -0.0419462239644899
 130     0.0009388625611241
 131     0.0628941800003480
 132     0.0031488619478052
 133     0.0495054382245373
 134    -0.0011389074744836
 135    -0.0118324563208413
 136    -0.0028428010796329
 137     0.0495289876977373
 138    -0.0011385733219020
 139    -0.0118247812239447
 140    -0.0028431140258074
 141    -0.0086751305610693
 142    -0.0004886214954825
 143    -0.0471042471480591
 144    -0.0088046779393055
 145    -0.0086854722290612
 146    -0.0004882732392571
 147    -0.0470870805462000
 148    -0.0088047375955260
 149     0.0000000623804883
 150     0.0000002071173396
 151    -0.0000000214245736
 152    -0.0000006907170990
 153     0.0008070145999218
 154    -0.0006350415328275
 155    -0.0000001116804613
 156     0.0000003983346579
 157     0.0013574975754158
 158     0.0000032329773806
 159    -0.0000007895860444
 160    -0.0000056072603778
 161     0.0000011467721273
 162    -0.0000023355871422
 163    -0.0001500445434887
 164     0.0001185605144500
 165    -0.0000698006089506
 166     0.0001078178409321
 167    -0.0000064860781840
 168     0.0000013998689488
 169     0.0000000064262696
 170    -0.0000000092648459
 171    -0.0000023825838482
 172    -0.0001497939057507
 173    -0.0000001826679133
 174     0.0001413273018684
 175     0.0001090182321709
 176     0.0000032263464751
 177    -0.0000007738119924
 178     0.0000056085753087
 179    -0.0000011377200048
 180    -0.0000023516386370
 181    -0.0001501072482470
 182    -0.0001183375698150
 183    -0.0000694624325353
 184     0.0001087347936234
 Sym= 7A
 Ene= -0.288938
 Spin= Alpha
 Occup= 2.000000
  1    -0.0000036344859859
  2     0.0000028415573872
  3     0.0000021518234360
  4    -0.0000013093257193
  5    -0.0000008683423557
  6    -0.0000128947572596
  7     0.0000509836399226
  8    -0.0000846056795565
  9    -0.0000234097344764
 10    -0.0000001158027839
 11    -0.0000016827094965
 12     0.0000026086703316
 13    -0.0000019088416789
 14    -0.0000051341210727
 15    -0.0000780909617987
 16     0.0000606203821223
 17    -0.0000126501782722
 18    -0.0001372234092469
 19    -0.0000014759568125
 20     0.0000000835181122
 21    -0.0000006830781754
 22     0.0000022903272334
 23     0.0000059360139081
 24     0.0000913751054122
 25    -0.0000050565513267
 26    -0.0000397898296667
 27     0.0001600164614310
 28    -0.0002259117649494
 29    -0.0000006989418978
 30     0.0001745051309206
 31     0.0000005269561484
 32     0.0000003863394912
 33     0.0000001996643560
 34    -0.0005012900716376
 35     0.0006501575179371
 36    -0.0000004821046083
 37    -0.0001584902847366
 38    -0.0159625473833157
 39     0.2605970293590545
 40    -0.0000000119542313
 41    -0.0001396013125020
 42     0.0036660976527803
 43     0.1655760497604891
 44    -0.0000058013156977
 45    -0.0000724655378097
 46    -0.0554715025718395
 47     0.1364347971088553
 48    -0.0000362181796099
 49    -0.0000719142375099
 50     0.0172748757122942
 51     0.0538606189761057
 52     0.0000355623156420
 53     0.4197273276526159
 54    -0.0035835466170903
 55     0.0371864211664331
 56     0.0492248464740521
 57     0.3354588557548948
 58    -0.0003629882324950
 59     0.0345634645978036
 60    -0.0960482184759411
 61    -0.4197679871100838
 62    -0.0035993802624538
 63     0.0370498564650260
 64    -0.0491869428715567
 65    -0.3355157535086079
 66    -0.0003251874991358
 67     0.0344546765189132
 68     0.0960007818780604
 69     0.0682815860194026
 70     0.0150695407745992
 71     0.0007336310066131
 72     0.1181927289181951
 73     0.0496539728612943
 74    -0.0031745332882215
 75     0.0041630374449652
 76    -0.0106942338009628
 77    -0.0682282416363725
 78     0.0150830467468034
 79     0.0007420979263746
 80    -0.1182391206167197
 81    -0.0496637104575890
 82    -0.0031834254571394
 83     0.0041498015142291
 84     0.0107449697816733
 85    -0.1954294679210468
 86     0.0097818554320293
 87    -0.0073968725038872
 88     0.0445744676573617
 89     0.0181757444957035
 90     0.0003813056860158
 91     0.0021309688681503
 92    -0.0111279590085946
 93     0.1954519711038755
 94     0.0098006442262316
 95    -0.0074024654120584
 96    -0.0445199366513657
 97    -0.0181060524777712
 98     0.0003932908900958
 99     0.0021501874386008
 100     0.0111354236621236
 101    -0.0000486899751909
 102     0.0911781181384620
 103    -0.1174231455948883
 104    -0.0000048217338049
 105     0.0000473822131389
 106     0.0035585555811965
 107     0.0054593826730251
 108    -0.0000082566041972
 109    -0.0000301597954513
 110     0.0204297385171256
 111    -0.0264328360952676
 112    -0.0000199399815447
 113     0.0000122984563816
 114     0.0004876852699900
 115     0.0007610807345772
 116    -0.0000116182956891
 117    -0.0000024466428642
 118     0.0045368535328695
 119    -0.0058742262084279
 120    -0.0000064515873963
 121    -0.0000007735939659
 122     0.0001017139409666
 123     0.0001568641294726
 124    -0.0000020831628613
 125     0.1815500947600829
 126     0.0054176919307751
 127     0.1263352705434347
 128     0.0061628602038808
 129    -0.1815106640998732
 130    -0.0054230135320373
 131    -0.1263184871951067
 132    -0.0061694678381444
 133     0.0638437962985754
 134     0.0022751651774601
 135     0.0265637297076240
 136     0.0036887495910143
 137    -0.0638139263631925
 138    -0.0022746979835825
 139    -0.0265734136691679
 140    -0.0036901863827176
 141    -0.0952259761953601
 142     0.0004264308095978
 143     0.0053359611358517
 144     0.0008859172574549
 145     0.0952294352437778
 146    -0.0004262410418674
 147    -0.0053160816634684
 148    -0.0008841752257932
 149    -0.0000053531129770
 150     0.0000000167788499
 151    -0.0000034895322995
 152     0.0000000099158341
 153    -0.0000001851163842
 154     0.0000000829740050
 155    -0.0000077764443569
 156    -0.0000131512742735
 157    -0.0000001046493962
 158    -0.0000000711239393
 159    -0.0000000559640987
 160    -0.0000000487592915
 161    -0.0000000289347943
 162    -0.0000000020031166
 163     0.0000000203347058
 164     0.0000009343089603
 165     0.0000016397052506
 166    -0.0000000538310285
 167    -0.0000000076792930
 168     0.0000000397208818
 169    -0.0000000421493215
 170    -0.0000000308285882
 171     0.0000001112792419
 172     0.0000016044558000
 173     0.0000009800969801
 174     0.0000002860875492
 175    -0.0000029034346458
 176    -0.0000000427350822
 177    -0.0000000088747146
 178     0.0000000135434538
 179     0.0000000501115936
 180    -0.0000001080973724
 181    -0.0000016113229513
 182    -0.0000001760857275
 183     0.0000009712616491
 184     0.0000029287476402
 Sym= 8A
 Ene= -0.283649
 Spin= Alpha
 Occup= 2.000000
  1     0.0000280231511753
  2     0.0000144093225314
  3     0.0000485459659124
  4     0.0000245982223723
  5     0.0000081402977198
  6     0.0003358423969603
  7     0.0002010854963115
  8     0.0001183330689823
  9     0.0001063178385422
 10    -0.0000560390712138
 11    -0.0000285107809825
 12     0.0000000030254389
 13     0.0000000008330205
 14     0.0000081777437328
 15     0.0003352012298894
 16     0.0000001701099717
 17    -0.0002398393853230
 18     0.0001064755117976
 19     0.0000280211010320
 20     0.0000144112452387
 21    -0.0000485364326913
 22    -0.0000245999389321
 23     0.0000081373184967
 24     0.0003357934264656
 25    -0.0002012337508570
 26     0.0001186144633139
 27     0.0001055057566020
 28     0.0000005928851099
 29     0.0000000138884419
 30     0.0000001007001017
 31     0.0000000893921674
 32     0.0013050089796673
 33     0.0009706675569891
 34     0.0000000233192333
 35    -0.0000014297424613
 36     0.0029075786124192
 37    -0.0785594381057769
 38     0.0000414542552214
 39    -0.0000587197586714
 40     0.1734836298228347
 41    -0.2109189847025217
 42    -0.0000162893084863
 43    -0.0000205604548881
 44    -0.1598064239784961
 45    -0.2455814371810975
 46     0.0000417013481068
 47    -0.0000679980747488
 48    -0.1031160251273009
 49    -0.3038488743362155
 50     0.0000051725412239
 51     0.0000040644190360
 52     0.1023481474765832
 53     0.1412372407700588
 54    -0.0004026844122496
 55     0.0016608253372759
 56     0.0755678313578704
 57     0.0644867270019490
 58    -0.0012169179143889
 59     0.0259095794182206
 60    -0.1219533463511281
 61     0.1413383402693558
 62     0.0004375310423105
 63    -0.0016568962822318
 64     0.0755316263845472
 65     0.0645290369054436
 66     0.0011790198614702
 67    -0.0259166506074345
 68    -0.1219566615883407
 69     0.1195105554297603
 70    -0.0592576430043053
 71     0.0784074651753005
 72    -0.1327823965717311
 73    -0.0503888259230481
 74     0.0225526493444558
 75     0.0295234138345544
 76     0.1246938904966552
 77     0.1196726889835920
 78     0.0592379518226751
 79    -0.0783615016080963
 80    -0.1327046197005806
 81    -0.0503998382471303
 82    -0.0225552973789568
 83    -0.0294926429831326
 84     0.1246789043836773
 85     0.1112105908417404
 86    -0.0555754901126655
 87     0.0734133069839781
 88     0.1397514662859485
 89     0.2075794402995120
 90    -0.0466263464345484
 91    -0.0616121502313487
 92     0.0524658687146861
 93     0.1110703939220775
 94     0.0555592771853879
 95    -0.0734706574105197
 96     0.1397985717613575
 97     0.2075319988025817
 98     0.0466178784608206
 99     0.0616297113513270
 100     0.0524525170827384
 101    -0.2563987760633876
 102    -0.0000479643440748
 103     0.0000231140889625
 104     0.1304949131942039
 105     0.3449555442949748
 106     0.0000093167416393
 107     0.0000059195522466
 108    -0.0304740124731936
 109    -0.2433677399631844
 110    -0.0000033044260598
 111     0.0000349162710856
 112    -0.0702033575856492
 113     0.1116800595354901
 114     0.0000127239908730
 115    -0.0000134858006450
 116    -0.0885771254441310
 117    -0.0716550926999825
 118     0.0000029986404758
 119     0.0000123264222299
 120    -0.0703022253250326
 121     0.0009392968281490
 122     0.0000036124879656
 123    -0.0000035794027538
 124    -0.0216924607745846
 125     0.0379873479760207
 126     0.0018506127908900
 127     0.0019160634158038
 128    -0.0007901389701562
 129     0.0380440124490018
 130     0.0018528354252832
 131     0.0019343296639846
 132    -0.0007888488024359
 133     0.0609431993804191
 134     0.0007580338369942
 135    -0.0358573217566735
 136     0.0000113389018787
 137     0.0610396466858485
 138     0.0007585271963891
 139    -0.0358557285096659
 140     0.0000111695054615
 141     0.0483164934347258
 142    -0.0003125782110710
 143     0.0609024416003190
 144     0.0048672587221357
 145     0.0482319023826593
 146    -0.0003119450489177
 147     0.0608830085968719
 148     0.0048674486597032
 149     0.0000000715525321
 150    -0.0000000953390880
 151    -0.0000000809231995
 152     0.0000003310864616
 153    -0.0015863427763397
 154     0.0004099517126819
 155    -0.0000003021857290
 156     0.0000001291087978
 157    -0.0002838405791487
 158     0.0000112221709363
 159    -0.0000066778905201
 160    -0.0000194303812053
 161     0.0000116234553907
 162    -0.0000005048715054
 163     0.0000153046739369
 164    -0.0000370622250480
 165     0.0000217899586739
 166    -0.0000547900277248
 167    -0.0000224328954720
 168     0.0000133974103713
 169    -0.0000000018665470
 170    -0.0000000020297497
 171    -0.0000004946509739
 172     0.0000151323972949
 173    -0.0000000229427740
 174    -0.0000443671932310
 175    -0.0000546983996878
 176     0.0000112337831368
 177    -0.0000066810772423
 178     0.0000194467229857
 179    -0.0000116330432903
 180    -0.0000005017617290
 181     0.0000151845307355
 182     0.0000370725731565
 183     0.0000218229121292
 184    -0.0000543185892215
 Sym= 9A
 Ene= -0.278682
 Spin= Alpha
 Occup= 2.000000
  1    -0.0000017750445963
  2     0.0000027800745444
  3     0.0000023859955361
  4    -0.0000007900825130
  5    -0.0000003232134108
  6    -0.0000215819457639
  7     0.0000940998334264
  8    -0.0001562756791833
  9    -0.0000397802680613
 10    -0.0000073072433647
 11    -0.0000044763158392
 12     0.0000016877261925
 13    -0.0000017048787457
 14    -0.0000019432171562
 15    -0.0001399306027795
 16     0.0001107352910192
 17    -0.0000249321388286
 18    -0.0002496525303361
 19    -0.0000051555610252
 20    -0.0000015908169376
 21     0.0000068114684190
 22     0.0000050184578257
 23     0.0000021362139041
 24     0.0001620975299024
 25    -0.0000086741257072
 26    -0.0000754974551310
 27     0.0002883087705546
 28    -0.0006085913373722
 29    -0.0000008399305316
 30     0.0004610764415781
 31     0.0000006150808338
 32     0.0000006160001058
 33     0.0000003590633709
 34    -0.0009234042745682
 35     0.0012179558936152
 36    -0.0000011742956452
 37    -0.0000198010576507
 38    -0.0479149815144262
 39     0.0395853188758914
 40     0.0000669103711754
 41     0.0000442044978606
 42    -0.0126027708149659
 43    -0.1680732593835040
 44    -0.0000174964606257
 45    -0.0001061347923611
 46    -0.1688955737636213
 47     0.2215953055146069
 48     0.0000181464583705
 49    -0.0000066581608521
 50    -0.0453783888330947
 51    -0.0947474506220226
 52     0.0000054307369418
 53    -0.0906960832262926
 54    -0.0152267814650947
 55    -0.0218813209528209
 56    -0.1096375291506674
 57    -0.2531289937244552
 58    -0.0060766680197911
 59    -0.0211427227624991
 60     0.0017236463165918
 61     0.0907488084157647
 62    -0.0151816448366385
 63    -0.0218551969855098
 64     0.1096679086324139
 65     0.2531827216571703
 66    -0.0060771321144199
 67    -0.0210941617382700
 68    -0.0017378439418085
 69     0.2600081313307899
 70    -0.0045063723582310
 71     0.0039367129911140
 72     0.1780030674556112
 73    -0.1276253480192951
 74    -0.0000855103132424
 75    -0.0095763422872921
 76     0.0037236367372504
 77    -0.2599445611243051
 78    -0.0044548488070304
 79     0.0039287449013226
 80    -0.1780792464728362
 81     0.1276112642454131
 82    -0.0000844465728018
 83    -0.0095680474296975
 84    -0.0037016976201867
 85    -0.3005693983462648
 86     0.0055198946954670
 87    -0.0075476770240803
 88     0.1541769301674073
 89    -0.0755966967555431
 90    -0.0036020463575117
 91    -0.0067314961349867
 92     0.0300645324495717
 93     0.3006441333293778
 94     0.0055573255556990
 95    -0.0075251893914033
 96    -0.1541116533468830
 97     0.0756538471633515
 98    -0.0035793990217100
 99    -0.0067114178777862
 100    -0.0300376543840793
 101    -0.0000484095873754
 102     0.1727322252332618
 103    -0.2281356516924451
 104    -0.0000201690684540
 105     0.0000651210322579
 106    -0.0198155977424247
 107    -0.0271361467322140
 108     0.0000010524257115
 109    -0.0000327878210377
 110     0.0430621657865641
 111    -0.0568471220922012
 112    -0.0000262364421264
 113     0.0000259577220938
 114    -0.0034558780248330
 115    -0.0047219907607046
 116    -0.0000168990582644
 117    -0.0000001744712928
 118     0.0102042280295309
 119    -0.0134687276673238
 120    -0.0000063137400250
 121     0.0000021191318560
 122    -0.0007533694605520
 123    -0.0010272809551490
 124    -0.0000057154568642
 125    -0.0098910531192419
 126     0.0003625745631931
 127    -0.1141644531551232
 128    -0.0022162823732602
 129     0.0099046006991661
 130    -0.0003609151805504
 131     0.1141542045270558
 132     0.0022186666801467
 133     0.1631082142933253
 134    -0.0006556807358338
 135    -0.0604825586474729
 136    -0.0038239207675504
 137    -0.1630541451110078
 138     0.0006564324187725
 139     0.0604672783692913
 140     0.0038255742933920
 141    -0.1706090622577998
 142     0.0007182099975328
 143    -0.0256155883613033
 144    -0.0019213978325748
 145     0.1706411156657959
 146    -0.0007187530160963
 147     0.0256295356294013
 148     0.0019232327216623
 149     0.0000405109251731
 150    -0.0000000871115810
 151     0.0000297134107001
 152    -0.0000000623828531
 153    -0.0000003326543842
 154     0.0000000562333518
 155     0.0000787582413525
 156     0.0001074119111718
 157     0.0000000842603397
 158     0.0000004144493351
 159     0.0000004019569839
 160     0.0000002794733173
 161     0.0000001844365276
 162    -0.0000000737486274
 163    -0.0000016808138239
 164    -0.0000083103553471
 165    -0.0000138773075949
 166     0.0000031097665612
 167     0.0000002832360832
 168    -0.0000003264365911
 169     0.0000002964838117
 170     0.0000002601443792
 171    -0.0000005330834369
 172    -0.0000126641901235
 173    -0.0000096282215661
 174    -0.0000022717762320
 175     0.0000227011277606
 176     0.0000003426556831
 177    -0.0000000307855400
 178     0.0000001905948759
 179    -0.0000004160080926
 180     0.0000005979377853
 181     0.0000144039774693
 182     0.0000008904303181
 183    -0.0000069241870346
 184    -0.0000257656198403
 Sym= 10A
 Ene= -0.271993
 Spin= Alpha
 Occup= 2.000000
  1    -0.0000007747826925
  2    -0.0000001535402090
  3    -0.0000002982839669
  4    -0.0000002225042246
  5    -0.0000002069379199
  6     0.0000060257970098
  7    -0.0000293245973961
  8     0.0000486260223440
  9     0.0000114321398151
 10     0.0000043471310907
 11     0.0000018260691420
 12     0.0000003021082569
 13     0.0000000174197898
 14    -0.0000014654909534
 15     0.0000423839545405
 16    -0.0000341131061445
 17     0.0000082464836834
 18     0.0000769241091733
 19     0.0000023026317370
 20     0.0000010228075376
 21    -0.0000044135249352
 22    -0.0000018068586117
 23     0.0000017063489785
 24    -0.0000488487457140
 25     0.0000026149378061
 26     0.0000240193893708
 27    -0.0000880998146713
 28     0.0002450268954877
 29     0.0000001815118450
 30    -0.0001823852688934
 31    -0.0000001286822703
 32    -0.0000000315698312
 33    -0.0000005366268380
 34     0.0002862583839643
 35    -0.0003836047468249
 36    -0.0000004598006000
 37    -0.0000994241002814
 38     0.0162372741884535
 39     0.0727184153495657
 40    -0.0000641639980258
 41     0.0001040449118206
 42    -0.0329937937489100
 43    -0.0417662329390905
 44    -0.0000111040938410
 45     0.0001151237538238
 46     0.0619683014759376
 47    -0.0530238404919216
 48    -0.0000484707631863
 49    -0.0000350831261945
 50    -0.1414715768576329
 51    -0.1891682589223503
 52    -0.0000293362304724
 53     0.1398149510988241
 54     0.0031510267413510
 55     0.0152340896188481
 56     0.0106844060902886
 57     0.0399383054252240
 58    -0.0092028999314304
 59     0.0129796833577320
 60    -0.0715558195582964
 61    -0.1399490187381820
 62     0.0031460908181850
 63     0.0151711069587472
 64    -0.0106253744816731
 65    -0.0398387769981854
 66    -0.0091758691730565
 67     0.0130252094684036
 68     0.0716292568397361
 69    -0.0984457358012827
 70     0.0092502390395713
 71    -0.0012500063403329
 72    -0.0435208868959113
 73    -0.4186446374567938
 74    -0.0237863315800592
 75    -0.0305220489049237
 76    -0.0735370279278036
 77     0.0983987666432908
 78     0.0091595210995433
 79    -0.0011495335493230
 80     0.0436287525865155
 81     0.4184904516459445
 82    -0.0237897733091961
 83    -0.0304890105459692
 84     0.0735665846032938
 85     0.0836565360670806
 86     0.0014124039042082
 87     0.0013032012414417
 88    -0.0618561050642108
 89    -0.3748904524212741
 90    -0.0212847475503847
 91    -0.0278738706249093
 92     0.0968933221405662
 93    -0.0838032162798726
 94     0.0013530058150450
 95     0.0013518116740143
 96     0.0617926421923289
 97     0.3750119191613973
 98    -0.0212052963598529
 99    -0.0278012146500778
 100    -0.0967382950937662
 101     0.0000588538823660
 102    -0.0554924619973802
 103     0.0750777405625790
 104    -0.0000286106074378
 105     0.0002482220058886
 106    -0.1153264971681470
 107    -0.1521917117210778
 108     0.0000471961728578
 109     0.0000861681830968
 110    -0.0147688485105212
 111     0.0198566331415890
 112     0.0000106790155154
 113     0.0001428764016665
 114    -0.0225230529234867
 115    -0.0297068952516766
 116    -0.0000657949699733
 117     0.0000369114905626
 118    -0.0036510183324766
 119     0.0049044595170370
 120     0.0000288028104027
 121     0.0000275346889820
 122    -0.0051003679928901
 123    -0.0067259303855996
 124    -0.0000370270643082
 125     0.0604682272783124
 126    -0.0004973261522885
 127    -0.0032534982444830
 128    -0.0024432368529411
 129    -0.0605117341755540
 130     0.0004965209942724
 131     0.0032868720986806
 132     0.0024415297600460
 133    -0.0548257787021329
 134     0.0007368254334580
 135    -0.1710623847523468
 136    -0.0045442355154252
 137     0.0547554915459729
 138    -0.0007376811857134
 139     0.1709859246934669
 140     0.0045471053866410
 141     0.0527767127992098
 142    -0.0000275479479093
 143    -0.1395421055822559
 144    -0.0053644515051742
 145    -0.0528646773422634
 146     0.0000281743139283
 147     0.1395745028833607
 148     0.0053689928693494
 149     0.0002930603948871
 150    -0.0000003758939243
 151     0.0002222343525310
 152    -0.0000002763631568
 153    -0.0000014227693940
 154    -0.0000000889193455
 155     0.0005203320025295
 156     0.0006857442320980
 157     0.0000012557548229
 158     0.0000010330007290
 159     0.0000018492989170
 160     0.0000012756402207
 161     0.0000006486755298
 162    -0.0000001592411274
 163    -0.0000122599755734
 164    -0.0000534961411327
 165    -0.0000887777177500
 166     0.0000226373270224
 167     0.0000038839164271
 168    -0.0000024166015318
 169     0.0000009345079940
 170     0.0000011642972491
 171    -0.0000009314737569
 172    -0.0000787106521834
 173    -0.0000630156650801
 174    -0.0000145651765882
 175     0.0001418804670543
 176     0.0000028047202482
 177    -0.0000007487218331
 178     0.0000036716115204
 179    -0.0000028329754715
 180     0.0000010315345670
 181     0.0000910917189245
 182     0.0000045087522454
 183    -0.0000431689456258
 184    -0.0001639941277121
 Sym= 11A
 Ene= -0.271489
 Spin= Alpha
 Occup= 2.000000
  1    -0.0000066958689498
  2    -0.0000026800963250
  3    -0.0000116090077048
  4    -0.0000044133302636
  5    -0.0000078950883220
  6    -0.0002434700185498
  7    -0.0001529681035413
  8    -0.0000899589339762
  9    -0.0000778707225908
 10     0.0000134292263673
 11     0.0000051787703796
 12    -0.0000000008401389
 13    -0.0000000029098619
 14    -0.0000078951129510
 15    -0.0002429537087458
 16    -0.0000003142684531
 17     0.0001827238652038
 18    -0.0000774662549745
 19    -0.0000066890518866
 20    -0.0000026821727010
 21     0.0000115956971799
 22     0.0000044111743828
 23    -0.0000078919397454
 24    -0.0002433528629143
 25     0.0001532267263965
 26    -0.0000904700250615
 27    -0.0000763092863173
 28    -0.0000005761597238
 29     0.0000000161700194
 30    -0.0000001637848778
 31     0.0000000542317279
 32     0.0006088799877621
 33    -0.0011354463697579
 34    -0.0000000909331741
 35     0.0000009439668512
 36    -0.0022806453285632
 37    -0.1878657189828524
 38    -0.0000288825915636
 39    -0.0000495743393147
 40    -0.1011470019496648
 41     0.2240712581782418
 42     0.0000028221031851
 43     0.0000375324824176
 44    -0.0994372235796929
 45     0.2241574780147159
 46    -0.0000606837279686
 47     0.0000413794440730
 48    -0.0843690262834628
 49    -0.2153724947739234
 50     0.0000507252535074
 51     0.0000760679231066
 52    -0.1258021573696455
 53    -0.1313601430899270
 54     0.0000632614465771
 55     0.0430277748616670
 56     0.0771646815953127
 57     0.1405862342814063
 58    -0.0015005022068786
 59    -0.0613493125767008
 60     0.0720084769024940
 61    -0.1311888265725513
 62    -0.0000364519674976
 63    -0.0430410837707694
 64     0.0771461153972146
 65     0.1405687757244451
 66     0.0015375551063759
 67     0.0613384053715642
 68     0.0719149559673978
 69    -0.0338069471206301
 70     0.0879276143398172
 71    -0.1181841553478468
 72     0.1087690269059370
 73    -0.1877810784224194
 74     0.0315548145664233
 75     0.0441194772647832
 76     0.0423305753449171
 77    -0.0339621312785447
 78    -0.0879369368720910
 79     0.1181345457058657
 80     0.1087725455137283
 81    -0.1881296138835298
 82    -0.0315437417773614
 83    -0.0440779428030112
 84     0.0422739469611564
 85    -0.1521992728369871
 86     0.0568903567813807
 87    -0.0753887718448517
 88    -0.0567646997046354
 89     0.1104825659255649
 90    -0.0436479863307189
 91    -0.0573258013718172
 92     0.1422078092071797
 93    -0.1521333797184703
 94    -0.0568868302524256
 95     0.0754109218962516
 96    -0.0568190600521655
 97     0.1101454839481958
 98     0.0436429074502132
 99     0.0573947718717877
 100     0.1422687673808171
 101     0.1157537083961947
 102     0.0000335671014213
 103    -0.0000157360859163
 104    -0.0957929128939000
 105     0.4027337332604067
 106     0.0000433246392755
 107     0.0000831232072609
 108     0.0710671768199234
 109     0.2053964693985666
 110     0.0000062492394873
 111    -0.0000189102598500
 112     0.0038498395953301
 113     0.2407357736204794
 114     0.0000227645175088
 115    -0.0000049485311966
 116    -0.1119048611875362
 117     0.1020071053336829
 118    -0.0000035464000011
 119    -0.0000103727379546
 120     0.0732239852599715
 121     0.0460507393395924
 122     0.0000149918827807
 123    -0.0000089195523958
 124    -0.0622223832282956
 125    -0.0555170088563443
 126    -0.0001747391569085
 127     0.0440144558808118
 128    -0.0010902292209458
 129    -0.0554319480236333
 130    -0.0001753316892884
 131     0.0439847810719001
 132    -0.0010923546280553
 133    -0.0649310696873436
 134    -0.0006479318214426
 135    -0.0580833203046141
 136     0.0002139881372589
 137    -0.0650030761902897
 138    -0.0006472205950392
 139    -0.0582243314093204
 140     0.0002096222945923
 141    -0.0938148841527785
 142     0.0003721543325075
 143     0.0498382407403863
 144     0.0015822671047748
 145    -0.0937570026087338
 146     0.0003723652291599
 147     0.0497093074442909
 148     0.0015780229801223
 149     0.0000003433486559
 150    -0.0000000312270778
 151    -0.0000005619462019
 152     0.0000001322042033
 153    -0.0024472694885541
 154    -0.0004872857047015
 155    -0.0000010200713744
 156     0.0000006319846896
 157     0.0016021931041065
 158     0.0000314412350967
 159    -0.0000179506859699
 160    -0.0000544566745488
 161     0.0000309634789136
 162    -0.0000050849587554
 163    -0.0001921790489940
 164     0.0000918137952285
 165    -0.0000540281435950
 166     0.0000085043218074
 167    -0.0000628583920317
 168     0.0000357667623846
 169    -0.0000000003979107
 170    -0.0000000112461106
 171    -0.0000051018931501
 172    -0.0001920537716885
 173    -0.0000000387207947
 174     0.0001091405626459
 175     0.0000093947219045
 176     0.0000314482721485
 177    -0.0000179440674861
 178     0.0000544680456326
 179    -0.0000309742898314
 180    -0.0000050871006861
 181    -0.0001925123270200
 182    -0.0000916733637706
 183    -0.0000539030802759
 184     0.0000097027033824
 Sym= 12A
 Ene= -0.261844
 Spin= Alpha
 Occup= 2.000000
  1     0.0001062847897098
  2     0.0000648138097797
  3     0.0001840410766568
  4     0.0001128639627299
  5    -0.0000211236649232
  6    -0.0007381215635595
  7    -0.0005298341099817
  8    -0.0003116939710404
  9    -0.0004179496689349
 10    -0.0002119095466853
 11    -0.0001298623916975
 12     0.0000000074543675
 13     0.0000000013191620
 14    -0.0000211382844787
 15    -0.0007377069382158
 16     0.0000002125415491
 17     0.0006324798915010
 18    -0.0004232750894220
 19     0.0001063455615048
 20     0.0000648393375229
 21    -0.0001841313696819
 22    -0.0001129060327089
 23    -0.0000210912897807
 24    -0.0007383209979376
 25     0.0005294066212203
 26    -0.0003112064966434
 27    -0.0004196007928922
 28    -0.0000015154047216
 29    -0.0000000566822089
 30    -0.0000011233757036
 31    -0.0000001475676804
 32     0.0125997657553102
 33    -0.0025762465773644
 34     0.0000008682062075
 35     0.0000029992315740
 36    -0.0067611461615747
 37    -0.0547595818517121
 38     0.0000040105547455
 39    -0.0000252019031739
 40     0.0152023469805227
 41    -0.0262458940022319
 42    -0.0000013434995659
 43     0.0000080868421711
 44    -0.0082022720888701
 45    -0.0683685692161020
 46     0.0000109571543567
 47    -0.0000336654642232
 48    -0.0057563962376323
 49    -0.0068725036033658
 50    -0.0000011647643137
 51     0.0000013681795859
 52     0.0170404028808461
 53     0.0199170680187631
 54    -0.0030124403915956
 55     0.0284049648677697
 56     0.0142596254118483
 57     0.0189101206206877
 58    -0.0005818089891897
 59     0.0171374579464599
 60    -0.0151853892189625
 61     0.0199505365613631
 62     0.0030174763230811
 63    -0.0283950424596758
 64     0.0142381532249919
 65     0.0188893970971924
 66     0.0005760903675346
 67    -0.0171331382649500
 68    -0.0151958125043898
 69     0.1635271139543939
 70    -0.0902944792706298
 71     0.1179600516318521
 72    -0.0026154632975199
 73     0.0149567055649591
 74     0.0005654395355085
 75     0.0009578137760314
 76     0.0059496385033708
 77     0.1635679151759698
 78     0.0902702016375532
 79    -0.1179495652380418
 80    -0.0026318767983410
 81     0.0149715555137396
 82    -0.0005674147291006
 83    -0.0009577727807024
 84     0.0059595197048422
 85     0.0348477382421270
 86    -0.1067389326673036
 87     0.1403577394332064
 88     0.0519726631650602
 89     0.0027788672844505
 90     0.0030875245571610
 91     0.0041224211725902
 92    -0.0132224873802009
 93     0.0348259007416176
 94     0.1067230864758825
 95    -0.1403664070519996
 96     0.0519224049093473
 97     0.0028057220523027
 98    -0.0030868403169916
 99    -0.0041282678943639
 100    -0.0132235636459956
 101    -0.1023778799687522
 102     0.0000113014604706
 103     0.0000494147955500
 104    -0.2292474908317594
 105    -0.0269103440106762
 106    -0.0000033225931578
 107    -0.0000087801103222
 108    -0.0127697215749490
 109     0.5769524870291752
 110     0.0000132715512113
 111     0.0000147864640698
 112    -0.2230187548036590
 113    -0.0283705301076294
 114    -0.0000013475417855
 115    -0.0000005539231143
 116     0.0061400797723469
 117     0.4787384040601710
 118    -0.0000189980618054
 119    -0.0000229086415724
 120     0.2663591362205805
 121    -0.0101709419911510
 122    -0.0000022989356952
 123     0.0000014280226115
 124     0.0089441965051632
 125     0.0254000908440659
 126     0.0008927110155446
 127     0.0125250713816181
 128     0.0001526711765994
 129     0.0254125962057239
 130     0.0008932504176960
 131     0.0125103468023528
 132     0.0001529015598204
 133     0.1554197303994277
 134    -0.0001731461841341
 135     0.0051911520062612
 136     0.0001897756151437
 137     0.1554334260163031
 138    -0.0001731835000482
 139     0.0051948552926004
 140     0.0001897930865262
 141     0.0997528457003277
 142    -0.0007571683186530
 143    -0.0002568241099679
 144    -0.0000046055762175
 145     0.0997289079953139
 146    -0.0007564035685048
 147    -0.0002455438183273
 148    -0.0000044842795333
 149    -0.0000000697372886
 150     0.0000000012321950
 151     0.0000001082265500
 152    -0.0000000052748330
 153     0.0001124890985043
 154     0.0001215389229916
 155     0.0000001142248765
 156    -0.0000000894101890
 157    -0.0002405447417891
 158    -0.0000024384829603
 159     0.0000013720898856
 160     0.0000042237709484
 161    -0.0000023607646811
 162     0.0000009266564360
 163     0.0000262615123334
 164    -0.0000146554606654
 165     0.0000086211959335
 166    -0.0000040627881193
 167     0.0000048722049237
 168    -0.0000027259377113
 169    -0.0000000005541874
 170     0.0000000008684316
 171     0.0000009267360892
 172     0.0000262301014900
 173    -0.0000000108356947
 174    -0.0000174506606755
 175    -0.0000041271331155
 176    -0.0000024362276000
 177     0.0000013707533806
 178    -0.0000042209795782
 179     0.0000023601614627
 180     0.0000009253783322
 181     0.0000262905093361
 182     0.0000146457030248
 183     0.0000086282484296
 184    -0.0000041148304356
 Sym= 13A
 Ene= -0.257865
 Spin= Alpha
 Occup= 2.000000
  1     0.0000240701970181
  2     0.0000151497179381
  3     0.0000416959109009
  4     0.0000262286692326
  5    -0.0000039362663175
  6     0.0000040162520515
  7     0.0000064710776667
  8     0.0000039031466934
  9     0.0000087738036171
 10    -0.0000480534711613
 11    -0.0000302295812814
 12     0.0000000068675792
 13    -0.0000000044339199
 14    -0.0000039207119825
 15     0.0000039820291620
 16    -0.0000003992843750
 17    -0.0000070830339474
 18     0.0000098779524717
 19     0.0000240812739464
 20     0.0000151495441618
 21    -0.0000417010986889
 22    -0.0000262371809910
 23    -0.0000039375241005
 24     0.0000041836301764
 25    -0.0000061528939999
 26     0.0000032601018986
 27     0.0000107542183483
 28    -0.0000001945434688
 29     0.0000001077556413
 30    -0.0000001917635850
 31     0.0000003840184635
 32     0.0023280439112945
 33    -0.0002003461580531
 34    -0.0000001324473444
 35     0.0000000054834987
 36    -0.0000364935588349
 37    -0.2582724943827033
 38     0.0000058892881691
 39    -0.0000251634844727
 40     0.0473473406416030
 41    -0.1937541476879626
 42    -0.0000212990311411
 43    -0.0000419791586084
 44    -0.1462876158674387
 45     0.1064586141409346
 46    -0.0000369499853205
 47     0.0000226784684973
 48    -0.2113891353706523
 49    -0.1576740971193253
 50    -0.0000097416964552
 51    -0.0000172342815231
 52     0.1600927574111067
 53     0.0911753567762462
 54     0.0020483683323976
 55     0.1059364831165536
 56     0.1500270857603154
 57     0.1602770236472199
 58     0.0003593884078783
 59     0.0798882266920941
 60    -0.1137156492540115
 61     0.0912331754387062
 62    -0.0019899542819094
 63    -0.1059204641673514
 64     0.1500215865092653
 65     0.1603449812461273
 66    -0.0003983213551700
 67    -0.0798850278970476
 68    -0.1136929872440149
 69    -0.0135698274224658
 70     0.1080732626253327
 71    -0.1407876637841400
 72     0.0432854508858139
 73     0.1290436844565596
 74     0.0212024854973444
 75     0.0291075828918984
 76     0.0978483658203836
 77    -0.0136115702373083
 78    -0.1080784923447298
 79     0.1407553781176462
 80     0.0433498483495744
 81     0.1291163301529241
 82    -0.0212015589125331
 83    -0.0290898130828252
 84     0.0978417190711121
 85    -0.1436506780459069
 86     0.0801249245793719
 87    -0.1049186886745292
 88     0.0111367600649238
 89     0.0762899159769968
 90     0.0294347639922819
 91     0.0391313370578300
 92    -0.1309110111150029
 93    -0.1436642896089477
 94    -0.0801215179969659
 95     0.1049080150084718
 96     0.0111564385100549
 97     0.0763164368197045
 98    -0.0294130750933972
 99    -0.0391774275826318
 100    -0.1309192586587256
 101     0.0406937452428942
 102     0.0000007213472877
 103     0.0000008359662654
 104    -0.0010539077280994
 105    -0.2424627262708693
 106     0.0000191484541345
 107    -0.0000332730041324
 108    -0.1620196888229685
 109     0.0910953959924159
 110     0.0000024816136697
 111     0.0000024158922806
 112    -0.0355094913850828
 113    -0.3489288466021967
 114     0.0000039847975447
 115     0.0000026946250390
 116     0.0354654124556016
 117     0.0776762419827817
 118    -0.0000030743109511
 119    -0.0000031612538872
 120     0.0418217908308390
 121    -0.1549225422687470
 122    -0.0000283301818922
 123     0.0000238333868349
 124     0.1197185086725956
 125     0.0491206889598629
 126     0.0002991648961063
 127     0.0756943144164831
 128     0.0006747253117131
 129     0.0491464677146536
 130     0.0002995702174375
 131     0.0757229658203201
 132     0.0006756768957792
 133    -0.0951609382357438
 134     0.0009250456181274
 135     0.0444500258316688
 136     0.0015757528850241
 137    -0.0951686966905073
 138     0.0009252847729645
 139     0.0444846367956758
 140     0.0015767757220778
 141    -0.1377690785743054
 142     0.0004546923186378
 143     0.0155578453854726
 144     0.0000302646086701
 145    -0.1377582066962739
 146     0.0004550757995384
 147     0.0155650785435100
 148     0.0000306491897460
 149    -0.0000012620402625
 150     0.0000000128641135
 151     0.0000014465790294
 152    -0.0000000445023947
 153    -0.0000510325086261
 154     0.0015979747464550
 155     0.0000011150929867
 156    -0.0000014452161726
 157    -0.0028579620738846
 158    -0.0000146578131466
 159     0.0000077225353479
 160     0.0000253942093072
 161    -0.0000132108972678
 162     0.0000130819225751
 163     0.0003040335656235
 164    -0.0001739205726619
 165     0.0001023556580261
 166    -0.0000527747466353
 167     0.0000292439498192
 168    -0.0000152382006254
 169    -0.0000000110479352
 170     0.0000000064617336
 171     0.0000130588719132
 172     0.0003036813357601
 173    -0.0000001731812953
 174    -0.0002071879951818
 175    -0.0000533961404129
 176    -0.0000146098233655
 177     0.0000077019305711
 178    -0.0000253332998118
 179     0.0000131878454769
 180     0.0000130567761965
 181     0.0003042716292133
 182     0.0001738338531423
 183     0.0001025078424715
 184    -0.0000528940404229
 Sym= 14A
 Ene= -0.255560
 Spin= Alpha
 Occup= 2.000000
  1    -0.0000063508496646
  2     0.0000031942920794
  3     0.0000018714611385
  4    -0.0000023551321557
  5    -0.0000011465777902
  6     0.0000044061792918
  7    -0.0000310288466304
  8     0.0000518035188213
  9     0.0000089925107306
 10     0.0000144629796709
 11     0.0000041604739908
 12     0.0000036905654845
 13    -0.0000022578050467
 14    -0.0000106776838512
 15     0.0000406411211090
 16    -0.0000349278348051
 17     0.0000104714895747
 18     0.0000795071154171
 19     0.0000056781823189
 20     0.0000037555183729
 21    -0.0000152946563300
 22    -0.0000031762685057
 23     0.0000118815910075
 24    -0.0000452442018039
 25     0.0000020665461171
 26     0.0000276833407933
 27    -0.0000882262245744
 28     0.0005155840658017
 29     0.0000000925517810
 30    -0.0003615534162506
 31    -0.0000000577847235
 32     0.0000005912734016
 33    -0.0000001560465130
 34     0.0002995311860638
 35    -0.0004247018568232
 36     0.0000002731928997
 37    -0.0000683511170589
 38     0.0237686353633685
 39     0.2711003996914240
 40    -0.0000110321037562
 41     0.0000772727765968
 42    -0.0112564460104568
 43    -0.2934725685440257
 44     0.0000153302767708
 45    -0.0000052545353547
 46     0.0818333748998823
 47     0.0096015411091269
 48    -0.0000293967665924
 49     0.0000155245484592
 50    -0.0307916826342876
 51    -0.1236442907100867
 52    -0.0000229653506541
 53     0.2725428591373458
 54     0.0078581099954242
 55     0.0107362757569612
 56    -0.1575602170332419
 57    -0.2760385885601349
 58    -0.0010111507975348
 59    -0.0069689146938486
 60    -0.1680684974606003
 61    -0.2725724615979755
 62     0.0079169158253096
 63     0.0107024825239341
 64     0.1575681918740500
 65     0.2760583509826882
 66    -0.0009505015278746
 67    -0.0069149526560447
 68     0.1680940260388899
 69    -0.1303377925847035
 70     0.0358962641404331
 71    -0.0005967819825973
 72    -0.0033405074229453
 73    -0.0078554292640563
 74     0.0217669847869277
 75     0.0031194188828421
 76     0.1244535310289843
 77     0.1303422675924917
 78     0.0358807537752254
 79    -0.0006027124041414
 80     0.0033460207157648
 81     0.0078264222623033
 82     0.0217689261109236
 83     0.0030852755714973
 84    -0.1244639675578377
 85     0.0682824956168163
 86     0.0131256168938606
 87    -0.0013153725622528
 88    -0.1054566791516078
 89     0.2305057573654610
 90     0.0127695038862554
 91     0.0103841850519845
 92     0.0254289663876526
 93    -0.0682970471545009
 94     0.0131224025286977
 95    -0.0013667089415765
 96     0.1054553298895738
 97    -0.2305045647636398
 98     0.0127687502594338
 99     0.0103698705402622
 100    -0.0254089693216950
 101    -0.0000023296492199
 102    -0.0674107996228801
 103     0.0991233484184576
 104     0.0000061768236966
 105     0.0000052418298737
 106     0.1012887909486850
 107     0.1302200213305443
 108    -0.0000073476382710
 109     0.0000309781630145
 110    -0.0208666579597934
 111     0.0298354300618746
 112    -0.0000063702066922
 113    -0.0000000275901996
 114     0.0245908604741572
 115     0.0317613946036085
 116    -0.0000050615414394
 117     0.0000233622471203
 118    -0.0057238719239624
 119     0.0081603698574827
 120     0.0000135223860722
 121    -0.0000034013069811
 122     0.0061655422174856
 123     0.0079692324236317
 124     0.0000011596796986
 125     0.1680902322905868
 126    -0.0007526238412430
 127    -0.1717676013234569
 128    -0.0001671066974220
 129    -0.1680795875637990
 130     0.0007545748180610
 131     0.1717528520395633
 132     0.0001662178741063
 133    -0.0585884139849549
 134     0.0004772375693117
 135    -0.0398335961035836
 136    -0.0010880002094613
 137     0.0585906343534387
 138    -0.0004776841691884
 139     0.0398277619319345
 140     0.0010878775201901
 141     0.0578022698987166
 142     0.0007698315606721
 143     0.1082852646044944
 144    -0.0001025465698914
 145    -0.0578036405752642
 146    -0.0007693661926045
 147    -0.1082728274984224
 148     0.0001019139127851
 149    -0.0004428175616853
 150     0.0000000367084737
 151    -0.0003426310483144
 152     0.0000000210527891
 153    -0.0000001794599259
 154    -0.0000001445371694
 155    -0.0004832007767999
 156    -0.0006258215442461
 157    -0.0000004031570692
 158     0.0000048741282015
 159     0.0000012602761787
 160     0.0000004794683893
 161     0.0000014838858104
 162    -0.0000013214584462
 163     0.0000107868443834
 164     0.0000485262318653
 165     0.0000796757163967
 166    -0.0000209230007216
 167    -0.0000118086728530
 168     0.0000038345522175
 169     0.0000027534152010
 170     0.0000011344876022
 171    -0.0000077743741587
 172     0.0000648844404638
 173     0.0000573219363124
 174     0.0000144983419460
 175    -0.0001222967630303
 176    -0.0000054324784766
 177     0.0000028345281741
 178    -0.0000128321812519
 179     0.0000035346529445
 180     0.0000091423603932
 181    -0.0000759932798226
 182    -0.0000022688350829
 183     0.0000390327287876
 184     0.0001427089002546
 Sym= 15A
 Ene= -0.245877
 Spin= Alpha
 Occup= 2.000000
  1    -0.0000408823642911
  2    -0.0000249778701355
  3    -0.0000708227634949
  4    -0.0000432127252049
  5    -0.0000010237692252
  6    -0.0000731093257265
  7    -0.0000485813746596
  8    -0.0000286224676115
  9    -0.0000143185239525
 10     0.0000816158442111
 11     0.0000498061815453
 12    -0.0000000078505775
 13     0.0000000033166602
 14    -0.0000010140388543
 15    -0.0000727380556826
 16     0.0000001606556863
 17     0.0000573582445744
 18    -0.0000145588280164
 19    -0.0000408953550324
 20    -0.0000249805845969
 21     0.0000708294090689
 22     0.0000432240948466
 23    -0.0000010228029492
 24    -0.0000731890363934
 25     0.0000484727686966
 26    -0.0000283749331291
 27    -0.0000151040574237
 28     0.0000000063163363
 29    -0.0000001014378578
 30     0.0000001513154109
 31    -0.0000003344374579
 32    -0.0029544269984380
 33    -0.0004574507950455
 34     0.0000000368510841
 35     0.0000001113500895
 36    -0.0006971116177572
 37     0.1120198599004011
 38    -0.0000104059247404
 39     0.0000066264504537
 40    -0.0516171158379917
 41     0.2128315510955052
 42    -0.0000169437219002
 43     0.0000354042285863
 44    -0.0842484175145041
 45     0.0102891633368633
 46     0.0000070702718173
 47    -0.0000105592558928
 48     0.1045034279000802
 49    -0.1745436326636485
 50    -0.0000345937761302
 51    -0.0000261619158881
 52    -0.0868973339219444
 53    -0.1592324275197533
 54    -0.0018300411834116
 55    -0.1172312066700067
 56    -0.0470451030550535
 57    -0.0368460309394272
 58    -0.0011384984884871
 59    -0.1481780726030467
 60     0.1032712129780133
 61    -0.1592584800958461
 62     0.0018089808922644
 63     0.1172103432950258
 64    -0.0470863244271824
 65    -0.0369517867814047
 66     0.0011730972484931
 67     0.1481712597852111
 68     0.1032539961565484
 69     0.0037331132157918
 70    -0.0425330179193309
 71     0.0504696190080535
 72     0.0055013126081166
 73    -0.0811776941408858
 74     0.0324599736662589
 75     0.0419371270724783
 76     0.0848355881259170
 77     0.0037266684516853
 78     0.0425295619655093
 79    -0.0504688690332400
 80     0.0054767639804894
 81    -0.0810832076689963
 82    -0.0324758940266240
 83    -0.0419160044302449
 84     0.0848151252141517
 85     0.0483182784391275
 86    -0.0398880596819881
 87     0.0509403695118102
 88    -0.0240113487118473
 89     0.1215661535244824
 90    -0.0126915965313235
 91    -0.0170059042182184
 92     0.0124073906445397
 93     0.0483304890565048
 94     0.0398842619672732
 95    -0.0509273543136131
 96    -0.0240384174704136
 97     0.1215208515740506
 98     0.0126930332458532
 99     0.0170015403336734
 100     0.0123516613269980
 101    -0.0027366599121718
 102     0.0000054384008085
 103    -0.0000010249938093
 104    -0.0268309364477942
 105     0.0390091970896778
 106     0.0000480557578462
 107    -0.0000107877906709
 108    -0.1777463909677398
 109    -0.0306437692367248
 110    -0.0000016428679154
 111    -0.0000077177426461
 112     0.0406593173154087
 113    -0.5156040906168986
 114     0.0000597769436978
 115    -0.0000357682878141
 116    -0.1967689595043243
 117    -0.0529810854981899
 118     0.0000019246268566
 119     0.0000002253317527
 120    -0.0211618317367826
 121    -0.4335662281099343
 122    -0.0000610756032720
 123     0.0000512659788626
 124     0.2389600660088836
 125    -0.1216426743048804
 126    -0.0001812844683535
 127    -0.0689855512113550
 128     0.0000842088147815
 129    -0.1216311308547188
 130    -0.0001806385902187
 131    -0.0690206264013237
 132     0.0000839924795021
 133     0.0389098830042901
 134    -0.0007858013812062
 135    -0.0328045929372413
 136    -0.0000200782646097
 137     0.0389051701265889
 138    -0.0007863064731141
 139    -0.0327534637420599
 140    -0.0000206327195997
 141     0.0668423474193988
 142    -0.0000995469383637
 143     0.0392299181079342
 144    -0.0006267451504031
 145     0.0668442833101151
 146    -0.0000996052664876
 147     0.0391970929039039
 148    -0.0006269834787514
 149    -0.0000033541137994
 150    -0.0000000049161601
 151     0.0000040215961626
 152     0.0000000193900584
 153    -0.0129585375403884
 154     0.0008019278832334
 155     0.0000016883876263
 156    -0.0000019830648187
 157    -0.0013644202583455
 158     0.0001545584053118
 159    -0.0000952654800016
 160    -0.0002676933510057
 161     0.0001650257701286
 162     0.0000202509388869
 163     0.0001268024407301
 164    -0.0000706295708522
 165     0.0000416161463059
 166    -0.0000519551426982
 167    -0.0003092805873071
 168     0.0001905955146252
 169    -0.0000000561808747
 170    -0.0000000370529432
 171     0.0000200499173877
 172     0.0001270103077380
 173    -0.0000003900994761
 174    -0.0000844902233038
 175    -0.0000525587410205
 176     0.0001548585134124
 177    -0.0000953502760998
 178     0.0002681006665115
 179    -0.0001652472115331
 180     0.0000200944587928
 181     0.0001266674161493
 182     0.0000700916558153
 183     0.0000417675448648
 184    -0.0000509588476047
 Sym= 16A
 Ene= -0.237993
 Spin= Alpha
 Occup= 2.000000
  1     0.0000067604581879
  2    -0.0000048713993413
  3    -0.0000037930097951
  4     0.0000025162822094
  5     0.0000006991499612
  6    -0.0000012096191401
  7     0.0000100018205630
  8    -0.0000177783211728
  9    -0.0000016287377555
 10    -0.0000147168718132
 11    -0.0000035175416622
 12    -0.0000041927322391
 13     0.0000029603460877
 14     0.0000125844807634
 15    -0.0000099049749304
 16     0.0000111198224950
 17    -0.0000047190953514
 18    -0.0000252000381970
 19    -0.0000055751911082
 20    -0.0000045392158820
 21     0.0000167497719298
 22     0.0000028527594914
 23    -0.0000134478970321
 24     0.0000091465580427
 25     0.0000007466748241
 26    -0.0000110339709995
 27     0.0000266191841385
 28    -0.0004262397602033
 29    -0.0000002149888499
 30     0.0002747390656422
 31     0.0000001356175633
 32    -0.0000255647782599
 33    -0.0000059685842224
 34    -0.0001005230374145
 35     0.0001552483818154
 36    -0.0000067503303549
 37    -0.0001636633831209
 38    -0.0145472674636884
 39    -0.1535614153565320
 40    -0.0002260756103562
 41    -0.0000894817357557
 42    -0.0718303275335956
 43     0.0855064304825972
 44     0.0001009713995480
 45     0.0000923589456303
 46    -0.0297652695792492
 47    -0.0429810446365253
 48     0.0001431772637675
 49     0.0000499881138674
 50    -0.2016495483336175
 51    -0.2102130063936370
 52     0.0000005490426827
 53    -0.0824692942918008
 54    -0.0123350881116606
 55     0.0107989497595376
 56     0.1358765523864512
 57     0.1859119381851050
 58    -0.0275727809156900
 59     0.0251397522523633
 60     0.0161294919150368
 61     0.0826176649405111
 62    -0.0123754360997435
 63     0.0102512995395360
 64    -0.1358011091843297
 65    -0.1856050185991050
 66    -0.0275744014319540
 67     0.0247068082716668
 68    -0.0161295410513222
 69     0.0489744059894608
 70    -0.0281304757145263
 71     0.0013015138241477
 72    -0.0254678846272581
 73    -0.2986853147682350
 74    -0.0175813542680978
 75    -0.0026630323950638
 76     0.1653646721490215
 77    -0.0488472996837770
 78    -0.0279225284979926
 79     0.0010253347914346
 80     0.0258105313981389
 81     0.2986143122584816
 82    -0.0175388818915790
 83    -0.0026838986395253
 84    -0.1654311370343013
 85    -0.0173482564804363
 86    -0.0133173367913337
 87     0.0029450122654601
 88     0.0597554236260330
 89     0.2913406876510145
 90    -0.0002564821176456
 91     0.0051916414808787
 92     0.1819269283906711
 93     0.0173153964217742
 94    -0.0131580074789669
 95     0.0027668831392257
 96    -0.0600153164490583
 97    -0.2913869548316583
 98    -0.0002161898369791
 99     0.0051552540879426
 100    -0.1818579872704337
 101     0.0001426400071474
 102     0.0311478540816170
 103    -0.0514227331815174
 104    -0.0002308371953776
 105     0.0000354625739468
 106     0.1862975609859994
 107     0.2492480638299920
 108    -0.0000110707064347
 109    -0.0000682527914037
 110     0.0111709735315969
 111    -0.0174075725641415
 112     0.0003144194197892
 113    -0.0000183656281149
 114     0.0546795364637891
 115     0.0729057745484277
 116    -0.0000386144954978
 117    -0.0003310705935444
 118     0.0034256539455698
 119    -0.0053132385060783
 120    -0.0001011472094307
 121    -0.0000411488203017
 122     0.0153415856530865
 123     0.0204456920426606
 124     0.0000158935119888
 125    -0.0744845060909397
 126    -0.0010067435521587
 127     0.0878541055301578
 128    -0.0008862410603804
 129     0.0748700679180939
 130     0.0010036052280668
 131    -0.0874748154179999
 132     0.0008859492054781
 133     0.0177267606753415
 134     0.0004724985387530
 135    -0.1809980689668068
 136     0.0009002145996902
 137    -0.0173220993828755
 138    -0.0004705221753500
 139     0.1809747178757056
 140    -0.0008998088339369
 141    -0.0221652755294358
 142    -0.0006380670067900
 143     0.1784885594569625
 144    -0.0005053155875642
 145     0.0223958086700528
 146     0.0006347072152030
 147    -0.1784965796581586
 148     0.0005057108547142
 149    -0.0014567147407366
 150     0.0000001845599871
 151    -0.0010929959141554
 152     0.0000001236614017
 153    -0.0000023732536710
 154    -0.0000005175297816
 155    -0.0007706692336544
 156    -0.0010252973226572
 157    -0.0000003569454444
 158     0.0000284124186486
 159     0.0000141239952207
 160     0.0000070633170542
 161     0.0000106243543481
 162    -0.0000066228512165
 163     0.0000125145301325
 164     0.0000766192497394
 165     0.0001248344933800
 166    -0.0000280656761961
 167    -0.0000534628057768
 168     0.0000140016481974
 169     0.0000170020334674
 170     0.0000105853863550
 171    -0.0000441212989579
 172     0.0000842716905824
 173     0.0000884028341139
 174     0.0000286352487175
 175    -0.0001832695269985
 176    -0.0000210492354353
 177     0.0000140186891865
 178    -0.0000587444460590
 179     0.0000104136244264
 180     0.0000508356687282
 181    -0.0000972852364412
 182     0.0000009750104805
 183     0.0000659619521771
 184     0.0002105958883186
 Sym= 17A
 Ene= -0.237826
 Spin= Alpha
 Occup= 2.000000
  1     0.0003873500424017
  2     0.0002328265540095
  3     0.0006709821886756
  4     0.0004029302010364
  5     0.0000402443945192
  6     0.0006275085517016
  7     0.0003938677572514
  8     0.0002317231832134
  9     0.0000388767361305
 10    -0.0007732000868692
 11    -0.0004643218844347
 12     0.0000000201170482
 13    -0.0000000143628023
 14     0.0000400513466996
 15     0.0006236570242591
 16    -0.0000002904684733
 17    -0.0004654898314911
 18     0.0000370140141279
 19     0.0003874291394239
 20     0.0002328548804060
 21    -0.0006710783274563
 22    -0.0004030085617125
 23     0.0000402567395379
 24     0.0006278030699980
 25    -0.0003937973941986
 26     0.0002313462588445
 27     0.0000404960303545
 28    -0.0000004511255052
 29     0.0000002949209066
 30    -0.0000002701096030
 31     0.0000006697995912
 32     0.0242088781486176
 33     0.0057093961248438
 34    -0.0000001732542632
 35    -0.0000002123653640
 36     0.0062571234622948
 37     0.1725957030954175
 38     0.0000265737924179
 39    -0.0001323897016542
 40     0.2133773407520555
 41     0.0394930400485504
 42    -0.0000895075065770
 43     0.0001176714185285
 44    -0.0498076092386402
 45    -0.0826591636835658
 46    -0.0000334889647408
 47    -0.0000070271579788
 48    -0.1299555577606663
 49     0.0093959468455698
 50    -0.0002248785510993
 51    -0.0002292565916618
 52     0.0306166886277853
 53    -0.0471150995163373
 54     0.0047521051946966
 55    -0.2428847332286710
 56    -0.0352611192603583
 57    -0.1529386025104075
 58     0.0018271079950468
 59    -0.1705030245372539
 60    -0.0104114379148999
 61    -0.0470092711894287
 62    -0.0047922071692494
 63     0.2428600568860600
 64    -0.0355929001763067
 65    -0.1534108670614173
 66    -0.0018932225049515
 67     0.1705263643988235
 68    -0.0104290361538336
 69    -0.0602902502226647
 70     0.0945726379750455
 71    -0.1288758267456080
 72    -0.1612308260547014
 73     0.0280463580391856
 74    -0.0037232930067113
 75    -0.0108596845831354
 76     0.0149262703949244
 77    -0.0604211227198497
 78    -0.0946143247377878
 79     0.1289168724879683
 80    -0.1610955356288214
 81     0.0287124635600630
 82     0.0036835814206780
 83     0.0108542558473723
 84     0.0145545012650283
 85     0.0157380525303572
 86     0.0753789156699103
 87    -0.1000061036600366
 88     0.1238752812972877
 89     0.0002953493371681
 90     0.0073655219111652
 91     0.0085222003282897
 92    -0.0263219530771657
 93     0.0157637678605325
 94    -0.0754052117101177
 95     0.0999435620492577
 96     0.1237535285695848
 97    -0.0003521420835484
 98    -0.0073628388856418
 99    -0.0085185289223218
 100    -0.0267241165249087
 101    -0.1324748140836050
 102     0.0000224453420032
 103    -0.0001085897380843
 104     0.2132430226617191
 105    -0.0469823610000033
 106     0.0002049600858743
 107     0.0002782600759076
 108     0.0021594790963372
 109     0.0580944105718720
 110     0.0000360128602568
 111     0.0000248124828541
 112    -0.2982060642632136
 113     0.0615375501516556
 114     0.0000466090296351
 115     0.0000935532879979
 116     0.0619071621351753
 117     0.3095923718122305
 118    -0.0000020665063077
 119    -0.0000069701844755
 120     0.0930760004025168
 121     0.0859102621246138
 122     0.0000277646670719
 123     0.0000146826889361
 124    -0.0379964038085875
 125    -0.1655659310736803
 126     0.0007309086377295
 127    -0.1688313081820377
 128     0.0007038602621492
 129    -0.1653886810775946
 130     0.0007330552787222
 131    -0.1690188250734911
 132     0.0007062924826163
 133    -0.1909197846013010
 134    -0.0008962368602619
 135    -0.0051871466550199
 136    -0.0007341633970106
 137    -0.1909334438441994
 138    -0.0008963214529345
 139    -0.0047817642542562
 140    -0.0007365503720008
 141    -0.1114222930395106
 142     0.0014928316140674
 143    -0.0015207447069876
 144     0.0001024981481082
 145    -0.1113530711904481
 146     0.0014946348242287
 147    -0.0019172143528306
 148     0.0001036997024501
 149    -0.0000010144586424
 150     0.0000000099931078
 151    -0.0000020460870423
 152    -0.0000000091289041
 153     0.0042426708308577
 154     0.0005173618808383
 155    -0.0000011001797821
 156    -0.0000009826488741
 157    -0.0006102083893410
 158    -0.0000623985995938
 159     0.0000381939350051
 160     0.0001081433709498
 161    -0.0000660946519077
 162     0.0000005453919418
 163     0.0000664273869938
 164    -0.0000432483138482
 165     0.0000256099666759
 166    -0.0000043913759332
 167     0.0001248251821364
 168    -0.0000762985292167
 169     0.0000000336219661
 170     0.0000000286113291
 171     0.0000005520528387
 172     0.0000662657453681
 173     0.0000001477960263
 174    -0.0000514393900230
 175    -0.0000044792345085
 176    -0.0000625441349263
 177     0.0000382163331359
 178    -0.0001083282374139
 179     0.0000661908040025
 180     0.0000006576009481
 181     0.0000664242367975
 182     0.0000435175281873
 183     0.0000255897870822
 184    -0.0000043422766180
 Sym= 18A
 Ene= -0.234544
 Spin= Alpha
 Occup= 2.000000
  1    -0.0001618837503743
  2    -0.0000977810937683
  3    -0.0002804368407165
  4    -0.0001692255194162
  5    -0.0000188999388834
  6    -0.0002914445994550
  7    -0.0001891371527831
  8    -0.0001112688214686
  9    -0.0000377295038240
 10     0.0003231400149115
 11     0.0001949899424239
 12    -0.0000000134504121
 13     0.0000000084926619
 14    -0.0000187946698439
 15    -0.0002897835462514
 16     0.0000001416049862
 17     0.0002237171446628
 18    -0.0000371743914996
 19    -0.0001619225344357
 20    -0.0000977919080469
 21     0.0002804768232614
 22     0.0001692614751981
 23    -0.0000189059927055
 24    -0.0002915713445947
 25     0.0001890957637326
 26    -0.0001110814181466
 27    -0.0000384660528795
 28    -0.0000000936875786
 29    -0.0000001818803650
 30     0.0000002231048926
 31    -0.0000004576683675
 32    -0.0096526045332197
 33    -0.0025299374813576
 34     0.0000000400977480
 35     0.0000002686931932
 36    -0.0028762064579041
 37     0.0166636322290089
 38    -0.0000137605887603
 39     0.0000112136262814
 40    -0.0655154716540554
 41     0.0949939721025289
 42    -0.0000266974335913
 43    -0.0000008378816985
 44    -0.1847146222347065
 45     0.0549838377192212
 46    -0.0000019320905323
 47    -0.0000126286542676
 48     0.0700534926178026
 49    -0.2817621656777258
 50    -0.0000262213383606
 51    -0.0000238890042654
 52     0.0239533055242399
 53    -0.1425104095039707
 54    -0.0021172196756450
 55    -0.0761487233041695
 56     0.0203586728590828
 57     0.0409627743077999
 58     0.0016901208165600
 59    -0.1101193000368613
 60     0.0610613003880209
 61    -0.1425369782315796
 62     0.0021230166289333
 63     0.0761351827034656
 64     0.0203381603176253
 65     0.0409258378462525
 66    -0.0016657482222277
 67     0.1101143147148867
 68     0.0610694527133700
 69     0.0265521307609739
 70    -0.0408781175070132
 71     0.0467701101644740
 72     0.0545260699317543
 73     0.1630856746869863
 74     0.1106832919069068
 75     0.1445175951659952
 76     0.1472743569581160
 77     0.0265514906103761
 78     0.0408685679360187
 79    -0.0467910315550403
 80     0.0544984502605364
 81     0.1631609008295161
 82    -0.1106849017893309
 83    -0.1444714083174509
 84     0.1472834619587692
 85     0.0086127366649220
 86    -0.0456520346209210
 87     0.0579274335031914
 88    -0.0477369018796901
 89     0.1718050943670090
 90     0.1021679643277301
 91     0.1343848498365482
 92    -0.1396258398083999
 93     0.0086198070309682
 94     0.0456479881866927
 95    -0.0579029573947994
 96    -0.0477566216741686
 97     0.1718152512310224
 98    -0.1021424011215358
 99    -0.1344172043139837
 100    -0.1396149049300035
 101     0.0316475998314009
 102     0.0000065924111629
 103     0.0000188065580930
 104    -0.0941067401155707
 105    -0.2516539343412864
 106    -0.0000048111639453
 107    -0.0000044420841160
 108    -0.0256904845018414
 109    -0.0130415562990230
 110    -0.0000082006785654
 111    -0.0000178500444330
 112     0.1103021631082251
 113     0.1728446159843412
 114    -0.0000585023209791
 115     0.0000512770033966
 116     0.2641966089012282
 117    -0.1124813240135837
 118     0.0000021469517181
 119    -0.0000005051838853
 120    -0.0310040117985204
 121     0.3231734266567259
 122     0.0000374794096695
 123    -0.0000283326600345
 124    -0.1292401173717092
 125    -0.1137568075754713
 126    -0.0006443740840490
 127    -0.0234790388990729
 128     0.0015279740696398
 129    -0.1137536249556453
 130    -0.0006430578656507
 131    -0.0234841280086646
 132     0.0015279867763856
 133     0.0649974908457770
 134     0.0000569164646946
 135     0.1277069255175206
 136     0.0002415091542617
 137     0.0649913648566569
 138     0.0000560421753041
 139     0.1277337019269611
 140     0.0002415655282228
 141     0.0656432386285594
 142    -0.0003964687593048
 143     0.1223698357605657
 144     0.0002335295586272
 145     0.0656383445131265
 146    -0.0003965783179173
 147     0.1223606198040545
 148     0.0002339664570012
 149     0.0000022739396138
 150    -0.0000000687919126
 151    -0.0000030935769392
 152     0.0000003924368576
 153     0.0187822940598728
 154     0.0031313446635847
 155    -0.0000009896889750
 156     0.0000005077428079
 157    -0.0032476409728152
 158    -0.0002958372388678
 159     0.0001796016756287
 160     0.0005124147539252
 161    -0.0003110005211482
 162     0.0000148917714886
 163     0.0003432986096534
 164    -0.0002142579512265
 165     0.0001258625836188
 166    -0.0000029662206125
 167     0.0005917545092850
 168    -0.0003589861281194
 169     0.0000000462163555
 170     0.0000000796761380
 171     0.0000150850379395
 172     0.0003420531265149
 173    -0.0000001573084229
 174    -0.0002548050617820
 175    -0.0000013887340303
 176    -0.0002962394993578
 177     0.0001796973514966
 178    -0.0005130193022036
 179     0.0003113259888457
 180     0.0000151173751553
 181     0.0003437723014994
 182     0.0002153565563884
 183     0.0001266639843473
 184    -0.0000022583254972
 Sym= 19A
 Ene= -0.216558
 Spin= Alpha
 Occup= 2.000000
  1     0.0007008914628775
  2     0.0004220519958008
  3     0.0012142167291847
  4     0.0007308930015823
  5     0.0001391197010896
  6     0.0011090529887380
  7     0.0007199350769661
  8     0.0004231001752450
  9     0.0001654311377804
 10    -0.0013987711022070
 11    -0.0008417864951620
 12     0.0000000043651468
 13    -0.0000000153543744
 14     0.0001383538519281
 15     0.0011022059031931
 16    -0.0000001760341063
 17    -0.0008508589649260
 18     0.0001627663274666
 19     0.0007010334686150
 20     0.0004221169877889
 21    -0.0012144532182431
 22    -0.0007310376086834
 23     0.0001392254480614
 24     0.0011093964422393
 25    -0.0007200598026823
 26     0.0004229637630043
 27     0.0001664788536360
 28     0.0000008601305748
 29     0.0000000967729191
 30    -0.0000001717810600
 31    -0.0000009583880207
 32     0.0315603254495819
 33     0.0110144353872285
 34    -0.0000000685703521
 35    -0.0000008767241047
 36     0.0103350634412121
 37     0.1141704002355597
 38    -0.0000151596647106
 39    -0.0000080863302184
 40    -0.1582105382523629
 41     0.0537130725059322
 42     0.0000258702355983
 43    -0.0000010473406657
 44     0.1732718479382160
 45     0.0154263666893675
 46     0.0000459039235315
 47     0.0000119336482942
 48     0.1629867738097955
 49    -0.0754090764701096
 50    -0.0000185951151074
 51    -0.0000315141630634
 52    -0.2197033482014842
 53     0.0348211911873869
 54     0.0065006759917075
 55     0.1205611239981316
 56    -0.1081287829552064
 57     0.0207606437799236
 58     0.0050658294945788
 59     0.1482624442232724
 60     0.1043209413003277
 61     0.0348546174624019
 62    -0.0065287462567156
 63    -0.1205377813083761
 64    -0.1080835978799181
 65     0.0207763559505324
 66    -0.0050271481090622
 67    -0.1482204023449192
 68     0.1042865311432184
 69    -0.1417659557825403
 70     0.0357997775785554
 71    -0.0359210468109249
 72    -0.1055857739722219
 73     0.0427871945066557
 74     0.1280470027157684
 75     0.1737065051545295
 76    -0.0194475567946249
 77    -0.1417638187290009
 78    -0.0357452962822136
 79     0.0359909395207705
 80    -0.1055721310081300
 81     0.0428288465818496
 82    -0.1280398825049895
 83    -0.1736865618147551
 84    -0.0194009667828421
 85     0.1338588842642368
 86     0.0124583088177967
 87    -0.0128143868813058
 88    -0.0002601286105433
 89     0.1083940053683393
 90     0.0990826665744915
 91     0.1314104266999200
 92     0.0444843558875093
 93     0.1338603890805570
 94    -0.0124466409217335
 95     0.0128186463935118
 96    -0.0002549029093030
 97     0.1084114798722503
 98    -0.0990780896679945
 99    -0.1313807529137554
 100     0.0444885820557141
 101    -0.1056536997265629
 102    -0.0000137055318164
 103    -0.0000580911339056
 104     0.2470852653068544
 105     0.0048423588285671
 106    -0.0000115602891521
 107     0.0000119764477092
 108     0.1048964618562963
 109    -0.0901382252640597
 110     0.0000209526158420
 111     0.0000402351803480
 112    -0.2493143614902579
 113    -0.0058677570338587
 114     0.0000218635790884
 115    -0.0000217363933655
 116    -0.1042581910220548
 117     0.2136441825205415
 118    -0.0000002304387620
 119     0.0000052092765573
 120     0.0196737889287656
 121    -0.1063545788211845
 122    -0.0000092405386925
 123     0.0000054784378364
 124     0.0258006632930238
 125     0.1254841684358098
 126     0.0002601751946829
 127     0.1462006064685260
 128    -0.0005592986710351
 129     0.1254664734217814
 130     0.0002582551863251
 131     0.1461614240388489
 132    -0.0005600166029614
 133    -0.1335987363646071
 134    -0.0061922121820801
 135     0.1646521719054708
 136    -0.0007620407737029
 137    -0.1335919711884471
 138    -0.0061906108015212
 139     0.1646438843831027
 140    -0.0007620082590578
 141     0.0509612209174854
 142     0.0047864451135639
 143     0.1583122436519250
 144    -0.0009546629160150
 145     0.0509630005607284
 146     0.0047857502807223
 147     0.1582971135345777
 148    -0.0009550476726609
 149    -0.0000006603581041
 150    -0.0000003850649665
 151     0.0000011023001728
 152     0.0000010335530617
 153    -0.0110497757078168
 154    -0.0035324327945165
 155    -0.0000001223445767
 156     0.0000007056735272
 157     0.0044354408412394
 158     0.0002260322885079
 159    -0.0001423727305128
 160    -0.0003915527450333
 161     0.0002468037838483
 162    -0.0000269943923372
 163    -0.0004835043549012
 164     0.0003387806884047
 165    -0.0001991734117403
 166     0.0001419276907976
 167    -0.0004520154080229
 168     0.0002846309364248
 169    -0.0000000655528957
 170    -0.0000000711502051
 171    -0.0000269949914867
 172    -0.0004822971498346
 173    -0.0000003481496819
 174     0.0004020763838565
 175     0.0001434952348757
 176     0.0002262979568361
 177    -0.0001424387817517
 178     0.0003918819126432
 179    -0.0002470606459237
 180    -0.0000270948438311
 181    -0.0004841737917028
 182    -0.0003389867305649
 183    -0.0001988843694076
 184     0.0001440747417058
 Sym= 20A
 Ene= -0.206348
 Spin= Alpha
 Occup= 2.000000
  1    -0.0001481438357395
  2     0.0000957043876687
  3     0.0000251933707206
  4    -0.0000707583793662
  5    -0.0000406644426496
  6    -0.0000272840088420
  7     0.0000184801801403
  8    -0.0000461214748968
  9    -0.0000179007087288
 10     0.0002763579881533
 11     0.0000715566944811
 12     0.0000885195038065
 13    -0.0000743308623552
 14    -0.0002140617959026
 15    -0.0001454939442673
 16     0.0000310633006991
 17     0.0000340927067868
 18    -0.0000932511340488
 19     0.0001199249556393
 20     0.0000807538495976
 21    -0.0003120405029792
 22    -0.0000523132283201
 23     0.0002553765769466
 24     0.0001747111925461
 25    -0.0000445356253217
 26     0.0000049628208361
 27     0.0001112413253669
 28     0.0053224050442382
 29     0.0000126231818314
 30    -0.0042372247235430
 31    -0.0000100711850991
 32     0.0000048100373940
 33     0.0000021172709079
 34    -0.0001087342263250
 35     0.0001363735713740
 36     0.0000022375490972
 37    -0.0000004552839167
 38    -0.1262196673822337
 39     0.0783868716955245
 40     0.0000042563570723
 41    -0.0000124906123956
 42    -0.0291419897316785
 43     0.1336050682670355
 44    -0.0000199874268470
 45     0.0000111119226122
 46    -0.2541810892194700
 47     0.2821671180631310
 48     0.0000607170528173
 49    -0.0000124334531939
 50    -0.0334445391779061
 51     0.0306674104251799
 52     0.0000230512543895
 53    -0.0855038446140873
 54    -0.0546620182730723
 55    -0.0600428618234703
 56    -0.0674895705879139
 57     0.0329005229877495
 58    -0.0283521535044669
 59    -0.0326791035534209
 60     0.1273388021294901
 61     0.0854910005827890
 62    -0.0546264756055709
 63    -0.0600549950768260
 64     0.0675168976670510
 65    -0.0328552297359224
 66    -0.0283908053724289
 67    -0.0327082249946038
 68    -0.1273096535093732
 69    -0.0160580951072978
 70     0.0918539536064351
 71    -0.1529963419581102
 72     0.3298713289600396
 73    -0.0416456876693814
 74    -0.0221142846704125
 75    -0.0001968808143738
 76    -0.0120869509447160
 77     0.0160238668475150
 78     0.0918072322268869
 79    -0.1528633037710102
 80    -0.3299423156064996
 81     0.0416142147801113
 82    -0.0220770767656821
 83    -0.0001536997165907
 84     0.0121220889726468
 85    -0.0113107858541473
 86     0.0903188036888911
 87    -0.1393965460618871
 88    -0.3304488102032977
 89     0.0150659784990999
 90    -0.0096586891861894
 91    -0.0017174352056967
 92     0.0422689266283613
 93     0.0113749376684230
 94     0.0903224498336615
 95    -0.1395881045942077
 96     0.3303583857735201
 97    -0.0150658132778722
 98    -0.0096208962730745
 99    -0.0016908788965850
 100    -0.0422913218607866
 101    -0.0000257632679742
 102    -0.2311773547862892
 103     0.2874325926206176
 104     0.0000716913229537
 105    -0.0000111862868195
 106     0.0231412185802509
 107     0.0384397835073166
 108    -0.0000443050427595
 109    -0.0000008202278618
 110    -0.0925614539708092
 111     0.1162321449058945
 112    -0.0000221454962232
 113    -0.0000091407221376
 114     0.0091825249162066
 115     0.0143879860697767
 116     0.0000395488831458
 117     0.0000323005737641
 118    -0.0345999963488868
 119     0.0434634945570668
 120     0.0000056393176563
 121     0.0000371391383259
 122     0.0031694676587910
 123     0.0049449511189614
 124    -0.0000053977833498
 125    -0.0478766433404593
 126    -0.0023558755016185
 127     0.0397080538280218
 128     0.0016551160341798
 129     0.0478791792813161
 130     0.0023551585909548
 131    -0.0396681678957453
 132    -0.0016531517446395
 133    -0.0002309433612312
 134     0.0003211399920110
 135    -0.0190939962814968
 136    -0.0005384407930914
 137     0.0001905749118094
 138    -0.0003234996030972
 139     0.0190323781606442
 140     0.0005381364475527
 141     0.0143601711602530
 142     0.0002964405453335
 143     0.0169884402728885
 144     0.0003926507609242
 145    -0.0142849023921429
 146    -0.0002934592110438
 147    -0.0170265481262888
 148    -0.0003918475406130
 149    -0.0005422212901448
 150     0.0000010428161832
 151    -0.0003474607035565
 152     0.0000006665241979
 153     0.0000052114141590
 154     0.0000018786832674
 155    -0.0000282772824278
 156    -0.0000436854486810
 157    -0.0000020027071342
 158     0.0000130039354788
 159     0.0000097144972834
 160     0.0000059998054525
 161     0.0000058783749743
 162    -0.0000012407327375
 163    -0.0000002781332843
 164     0.0000016829680145
 165     0.0000026685741366
 166    -0.0000001379173113
 167    -0.0000280844083131
 168     0.0000070084618347
 169     0.0000077038630649
 170     0.0000061305506760
 171    -0.0000227896089193
 172    -0.0000094579787645
 173     0.0000017174329279
 174     0.0000045682556939
 175    -0.0000008471133284
 176    -0.0000094157260047
 177     0.0000083900239329
 178    -0.0000294323558741
 179     0.0000040834218595
 180     0.0000241274496152
 181     0.0000104654686127
 182     0.0000038263000930
 183     0.0000038327393730
 184     0.0000008029579764
 Sym= 21A
 Ene= -0.205981
 Spin= Alpha
 Occup= 2.000000
  1    -0.0006092249976369
  2    -0.0003634250322030
  3    -0.0010553655002483
  4    -0.0006295144799746
  5    -0.0001421616934917
  6    -0.0007688817788865
  7    -0.0004690601495532
  8    -0.0002755533761035
  9    -0.0000839411508004
 10     0.0012156056709239
 11     0.0007249536532634
 12     0.0000000567708080
 13    -0.0000000573086778
 14    -0.0001415050469561
 15    -0.0007636744547173
 16     0.0000004260570254
 17     0.0005528912375253
 18    -0.0000828531127593
 19    -0.0006092829881660
 20    -0.0003635550734670
 21     0.0010555792782622
 22     0.0006296267104376
 23    -0.0001423597352404
 24    -0.0007692140700218
 25     0.0004689438793041
 26    -0.0002749843595735
 27    -0.0000860415151344
 28     0.0000002157730365
 29     0.0000008696540417
 30    -0.0000008209148961
 31     0.0000043306555164
 32    -0.0227744498738245
 33    -0.0083985134959006
 34     0.0000001408633194
 35     0.0000005001079361
 36    -0.0064746615362213
 37    -0.0389057936068013
 38     0.0000021878224429
 39    -0.0000079922275054
 40     0.2251167131381584
 41     0.0229462375250027
 42     0.0000009088668894
 43     0.0000276071106783
 44     0.1209331544717249
 45    -0.2219234190102357
 46    -0.0000691329885471
 47     0.0000280116942679
 48    -0.1508001371560879
 49     0.0479292658549922
 50    -0.0000126449440339
 51    -0.0000196576659294
 52    -0.1353342632674694
 53     0.0826902495820839
 54    -0.0043188301832901
 55    -0.0389395118363117
 56    -0.0502521200054409
 57    -0.1322465454521348
 58     0.0037460298045558
 59    -0.0412246471654647
 60    -0.0347132138269649
 61     0.0827162259575459
 62     0.0042581637565512
 63     0.0389365588242721
 64    -0.0502565381018717
 65    -0.1322745214815545
 66    -0.0037884650368403
 67     0.0412152032623149
 68    -0.0347451086426099
 69     0.1612360091353324
 70    -0.0705575675992828
 71     0.0934539646017190
 72     0.0440881914531930
 73     0.0657307844558703
 74     0.0892515312666715
 75     0.1108066351608818
 76    -0.0746244015597127
 77     0.1612527003892866
 78     0.0705358304551363
 79    -0.0935435584349681
 80     0.0439640677516645
 81     0.0657605620666278
 82    -0.0892379114446922
 83    -0.1108079785854377
 84    -0.0745906135894087
 85    -0.1762474426705691
 86     0.0999538320610977
 87    -0.1310443095765161
 88     0.1110552704666632
 89     0.0247839561756350
 90     0.0898657624073209
 91     0.1163610693493049
 92     0.0567043995083607
 93    -0.1762552580649109
 94    -0.0999201206420588
 95     0.1309355711436829
 96     0.1112104842199552
 97     0.0247903786977353
 98    -0.0898638227210996
 99    -0.1163265320400991
 100     0.0567039584595493
 101     0.1629546340172712
 102    -0.0000343563112017
 103     0.0000818818142872
 104    -0.0989320618702578
 105     0.0280087336488547
 106    -0.0000175695570318
 107     0.0000301520488533
 108     0.1835492584032136
 109     0.0951943318709693
 110    -0.0000289659684718
 111    -0.0000014842484904
 112     0.1476896855235516
 113     0.0399294600002558
 114     0.0000359696040389
 115    -0.0000319230290561
 116    -0.1690148078071717
 117    -0.1085821075800372
 118    -0.0000078337123030
 119     0.0000044645296854
 120     0.0074445274782930
 121    -0.1559857684263802
 122    -0.0000096819694368
 123     0.0000060765305554
 124     0.0211923285505891
 125     0.0427842210093295
 126     0.0023190351716080
 127    -0.0931605533908666
 128    -0.0029239418570034
 129     0.0427885608764463
 130     0.0023194527480461
 131    -0.0931781824867720
 132    -0.0029227950173526
 133     0.1820603914683658
 134     0.0114401308462375
 135     0.1413991293562617
 136     0.0000622527172408
 137     0.1820599055306383
 138     0.0114390440445835
 139     0.1413889519812717
 140     0.0000615022050158
 141    -0.2402251984251035
 142    -0.0112991323926083
 143     0.1200707555719170
 144    -0.0012644374660427
 145    -0.2402130915135003
 146    -0.0112973374033531
 147     0.1200500272457668
 148    -0.0012649023852773
 149    -0.0000009576877213
 150    -0.0000005416055954
 151     0.0000015236701160
 152     0.0000010097445800
 153    -0.0223172658198276
 154    -0.0080388909867248
 155    -0.0000001058658822
 156     0.0000012193368436
 157     0.0085089633094615
 158     0.0005471710208921
 159    -0.0003419729347227
 160    -0.0009478396264570
 161     0.0005930415148935
 162    -0.0000929090374849
 163    -0.0009714192323939
 164     0.0006627470445307
 165    -0.0003893252522333
 166     0.0002557862896451
 167    -0.0010941661550184
 168     0.0006838388020722
 169    -0.0000001012098162
 170    -0.0000001748888001
 171    -0.0000928076584755
 172    -0.0009688368449440
 173    -0.0000002396237894
 174     0.0007861893765422
 175     0.0002572023041776
 176     0.0005478129616400
 177    -0.0003421291794571
 178     0.0009487496037523
 179    -0.0005936625493455
 180    -0.0000931896657646
 181    -0.0009727599640701
 182    -0.0006636138992470
 183    -0.0003895355657194
 184     0.0002579178744087
 Sym= 22A
 Ene= -0.195889
 Spin= Alpha
 Occup= 2.000000
  1     0.0008154716511628
  2     0.0005084654128379
  3     0.0014128420277007
  4     0.0008813369216823
  5     0.0001750895871572
  6     0.0012631774229678
  7     0.0008572122351596
  8     0.0005030597816697
  9     0.0003625096151287
 10    -0.0016269708487302
 11    -0.0010142858683513
 12     0.0000000551512851
 13    -0.0000001269968542
 14     0.0001735625770910
 15     0.0012554727145431
 16     0.0000004441279065
 17    -0.0010129400561370
 18     0.0003588005778915
 19     0.0008156587338152
 20     0.0005084125039148
 21    -0.0014130544578139
 22    -0.0008815000408660
 23     0.0001749158745471
 24     0.0012633047097435
 25    -0.0008577982247020
 26     0.0005039152927692
 27     0.0003605935975811
 28     0.0000013083514424
 29     0.0000018717131303
 30     0.0000002672603209
 31     0.0000043847325618
 32     0.0271186191664587
 33     0.0109113927217924
 34     0.0000002404889684
 35    -0.0000011030538855
 36     0.0103736859816011
 37     0.0217940386293051
 38     0.0000000561283283
 39    -0.0000060985471836
 40    -0.1004705647911019
 41     0.1672125109330538
 42     0.0000114636454221
 43     0.0000227462218910
 44     0.0326318352064289
 45    -0.1835872776926137
 46     0.0000692235340784
 47    -0.0000260407168626
 48     0.1726455353548320
 49    -0.0512814692180855
 50    -0.0000115370468346
 51     0.0000232936891741
 52    -0.0853969073208984
 53     0.0037591648992735
 54    -0.0064147554889211
 55     0.1088452937327132
 56    -0.1185931532847471
 57    -0.0096811931406039
 58    -0.0071212041433410
 59    -0.0097437221133963
 60     0.0999002540227873
 61     0.0037867349495188
 62     0.0063863679880105
 63    -0.1088068049303165
 64    -0.1185202863948773
 65    -0.0096659357230390
 66     0.0071678020529361
 67     0.0097585743124204
 68     0.0998220327573388
 69     0.0280437725309470
 70    -0.1062384890601054
 71     0.1482420574894251
 72     0.0150516069543914
 73    -0.1242952510602086
 74    -0.0422772463072703
 75    -0.0513167505804565
 76     0.1212568162066847
 77     0.0280697565463659
 78     0.1062624849026284
 79    -0.1481827418913256
 80     0.0150294841708975
 81    -0.1242997485529992
 82     0.0422329783026692
 83     0.0513440441903536
 84     0.1212560825802983
 85    -0.0453286577907139
 86     0.1409267611439528
 87    -0.1823102891057594
 88     0.0689026684495235
 89     0.1041835788502098
 90    -0.0484016983467414
 91    -0.0624651091727070
 92    -0.0288129976004709
 93    -0.0453379475074183
 94    -0.1408931434464382
 95     0.1823058507686564
 96     0.0689585704407586
 97     0.1041864380403191
 98     0.0483932001917832
 99     0.0624405779143262
 100    -0.0288280687691533
 101     0.1390576847937163
 102     0.0000033111238325
 103    -0.0000417707494609
 104     0.2216137008564732
 105    -0.0694322738259608
 106     0.0000308746542587
 107    -0.0000417415327066
 108    -0.2702892477072054
 109    -0.0525463079453140
 110     0.0000154260427988
 111     0.0000209249987884
 112    -0.1146123267008227
 113    -0.1105751626388785
 114    -0.0000503825836134
 115     0.0000469489329234
 116     0.2472311522665195
 117     0.1204170469831845
 118     0.0000023946862800
 119     0.0000058820329007
 120    -0.0025944437621303
 121     0.2151777063884173
 122     0.0000090738562618
 123    -0.0000044040680576
 124    -0.0063062643366219
 125     0.1329981513670164
 126     0.0016345294790828
 127     0.0174384193216524
 128    -0.0009290926597563
 129     0.1329413956685891
 130     0.0016319100680431
 131     0.0174112253790233
 132    -0.0009301275997308
 133     0.1625019676655045
 134     0.0087189978961664
 135    -0.1441911528558432
 136    -0.0028344296591049
 137     0.1624941876727010
 138     0.0087184768397994
 139    -0.1441771120581126
 140    -0.0028330880620152
 141    -0.2129275185929308
 142    -0.0094548131180913
 143    -0.0125034366141744
 144     0.0029281518674099
 145    -0.2129154149562617
 146    -0.0094535355331792
 147    -0.0124893649559116
 148     0.0029279857012407
 149     0.0000010853360522
 150     0.0000005533560677
 151    -0.0000020546875779
 152     0.0000002181666164
 153     0.0410481948213001
 154     0.0157121894574457
 155     0.0000000837332040
 156    -0.0000020133995442
 157    -0.0146112463166097
 158    -0.0012035181332113
 159     0.0007509715750381
 160     0.0020847979018026
 161    -0.0013026564358789
 162     0.0002362423246991
 163     0.0018152240655938
 164    -0.0011981019602984
 165     0.0007033131732866
 166    -0.0004619634478395
 167     0.0024065386585411
 168    -0.0015019947893426
 169     0.0000001539763863
 170     0.0000003826233121
 171     0.0002358639520521
 172     0.0018103733859477
 173     0.0000001886533183
 174    -0.0014199503764491
 175    -0.0004635957670234
 176    -0.0012049745581721
 177     0.0007513506243563
 178    -0.0020870139674113
 179     0.0013040800461271
 180     0.0002369651814794
 181     0.0018179285107615
 182     0.0012000469843396
 183     0.0007041914911416
 184    -0.0004646929646367
 Sym= 23A
 Ene= -0.189079
 Spin= Alpha
 Occup= 2.000000
  1     0.0001030877208205
  2     0.0000023470388469
  3     0.0001332286496337
  4     0.0000497463991632
  5     0.0001223988885687
  6     0.0001100635353574
  7    -0.0000046035967657
  8     0.0000387105072443
  9     0.0000958919744203
 10     0.0000262227685818
 11     0.0000065130223649
 12    -0.0000663007133692
 13     0.0000620026403706
 14    -0.0000219896727554
 15    -0.0000082558156151
 16    -0.0000637810015784
 17     0.0000046225394564
 18     0.0000029013284749
 19    -0.0001091339500633
 20     0.0000145839968127
 21     0.0001013859699207
 22     0.0000532255470110
 23    -0.0001005590345571
 24    -0.0001027561660841
 25    -0.0000044106206321
 26    -0.0000308065442985
 27    -0.0000987490055419
 28     0.0003623923116846
 29     0.0000012452262025
 30     0.0028238204309472
 31     0.0000117255886455
 32    -0.0000082081470388
 33    -0.0000032338803715
 34     0.0004249294841882
 35    -0.0000625257883305
 36    -0.0000023923960678
 37     0.0000165593343284
 38     0.0748997359025688
 39     0.0907385536307999
 40    -0.0000331153263279
 41    -0.0000326314228981
 42     0.0218931616134300
 43     0.0454722541962783
 44    -0.0000105982381073
 45    -0.0000176330739313
 46     0.0272277784658851
 47     0.1935133258849335
 48     0.0000571229131493
 49    -0.0000080518066361
 50     0.0076917962921521
 51     0.0145854600583811
 52     0.0000173405109235
 53     0.0171354322617510
 54     0.0469944182728851
 55    -0.0676247184727526
 56    -0.0165337777478814
 57     0.0090442822011104
 58     0.0253996966564174
 59    -0.0417439299597873
 60     0.0128107233963751
 61    -0.0171716608739670
 62     0.0469902550230623
 63    -0.0676000984907078
 64     0.0165435748081382
 65    -0.0089905548797783
 66     0.0253893553183088
 67    -0.0418068003455811
 68    -0.0127977156425179
 69     0.0994134348441518
 70     0.2724440052947349
 71    -0.1799997499700961
 72    -0.2164093416026908
 73    -0.0091488305907870
 74    -0.0068327006184539
 75    -0.0079684432626671
 76    -0.0118505375334441
 77    -0.0993800533808108
 78     0.2724485478816394
 79    -0.1801513416796947
 80     0.2163016475362463
 81     0.0091646002761988
 82    -0.0068316641205666
 83    -0.0079689225992602
 84     0.0118391614948501
 85     0.0913413145607683
 86     0.2438211955868430
 87    -0.1682552394468742
 88     0.2187704156869872
 89     0.0023156049795391
 90    -0.0041450851553283
 91    -0.0049897637958211
 92     0.0176829993281108
 93    -0.0913589847261946
 94     0.2438105472029506
 95    -0.1681922490885906
 96    -0.2187847824830250
 97    -0.0023393517310942
 98    -0.0041346300585270
 99    -0.0049864674962883
 100    -0.0176859992818512
 101     0.0000014202815152
 102     0.0144847336574540
 103     0.1380961332205335
 104    -0.0000010826467010
 105     0.0000073363244024
 106     0.0113926661841027
 107     0.0154436190051900
 108     0.0000084392162333
 109     0.0000216656358833
 110     0.0393883438043285
 111     0.0102059542021573
 112     0.0000333387384707
 113     0.0000068498938479
 114     0.0047925647949492
 115     0.0064603615967915
 116    -0.0000107168793616
 117    -0.0000259400426196
 118     0.0181685902580630
 119     0.0022756974627685
 120     0.0000061804262161
 121    -0.0000083041358870
 122     0.0018479056047680
 123     0.0024902110628537
 124    -0.0000007340354431
 125    -0.0470789589469091
 126     0.0005303096661024
 127    -0.0199275836727734
 128    -0.0003263913177128
 129     0.0470288611929693
 130    -0.0005339351276717
 131     0.0200043008062411
 132     0.0003293745030985
 133    -0.2782402707291064
 134    -0.0104996017975431
 135    -0.0065466819399479
 136    -0.0002769266658333
 137     0.2782664467244633
 138     0.0105013796320852
 139     0.0065640386822452
 140     0.0002773295256404
 141    -0.2519250601247536
 142    -0.0087559715751781
 143     0.0035026994920117
 144     0.0001505737453784
 145     0.2518924744144507
 146     0.0087528375169696
 147    -0.0035227986778463
 148    -0.0001511764851801
 149    -0.0003468290214152
 150     0.0000012366175844
 151    -0.0002573736862444
 152     0.0000009161828372
 153    -0.0000020121356830
 154    -0.0000007629669887
 155     0.0000169194108919
 156     0.0000227693465145
 157     0.0000006311027855
 158     0.0000111153159166
 159     0.0000079027988834
 160     0.0000026324892986
 161     0.0000056019288793
 162    -0.0000024003571677
 163    -0.0000019007829005
 164    -0.0000024622481550
 165    -0.0000052093641143
 166     0.0000013327318552
 167    -0.0000221747075526
 168     0.0000058184475075
 169     0.0000065622274632
 170     0.0000057871650851
 171    -0.0000167424465192
 172    -0.0000129170061324
 173    -0.0000034612690352
 174     0.0000025046009006
 175     0.0000090493396845
 176    -0.0000087488731809
 177     0.0000065810596802
 178    -0.0000239196872494
 179     0.0000036778830836
 180     0.0000191305377540
 181     0.0000146306757415
 182     0.0000034868717976
 183    -0.0000006091864293
 184    -0.0000103044089025
 Sym= 24A
 Ene= -0.187593
 Spin= Alpha
 Occup= 2.000000
  1     0.0002342946750522
  2     0.0000498988294826
  3     0.0003805974566525
  4     0.0001077334211767
  5     0.0003278797354984
  6     0.0002918313347915
  7     0.0000338867551276
  8     0.0000229228212255
  9     0.0002505800793386
 10     0.0002001856485441
 11     0.0000543349999035
 12    -0.0001540495711770
 13     0.0001413756978208
 14    -0.0001436499120983
 15    -0.0001346621015833
 16    -0.0001225304520800
 17     0.0000182805060843
 18    -0.0001197837881723
 19    -0.0002486983806539
 20     0.0000798753801832
 21     0.0001470057379819
 22     0.0001238148411884
 23    -0.0001844856045264
 24    -0.0001597522631671
 25    -0.0000373685690443
 26    -0.0001167197350041
 27    -0.0001319213780394
 28     0.0030714699042538
 29     0.0000131881347971
 30     0.0061756368977029
 31     0.0000263169623008
 32    -0.0000266672449264
 33    -0.0000103133157516
 34     0.0007509190771949
 35     0.0004401596026373
 36    -0.0000084119800979
 37    -0.0000620755678560
 38     0.1757017963738410
 39     0.1920543334900947
 40     0.0000350761304646
 41     0.0000301874128914
 42     0.0370599591799700
 43     0.2192800967269266
 44     0.0000161412721265
 45    -0.0000053069602636
 46     0.3429314335607349
 47     0.1430138812843123
 48    -0.0001237758117007
 49     0.0000170540956379
 50     0.0012619764151582
 51     0.1016304316537427
 52    -0.0000450443029367
 53    -0.0492761440811294
 54     0.0826678835904688
 55    -0.0839441408539057
 56    -0.1914769792971935
 57    -0.0051608032874391
 58     0.0449059786120370
 59    -0.0789788560583976
 60     0.2107976012423304
 61     0.0493716544354747
 62     0.0827230050408760
 63    -0.0839840678681357
 64     0.1913979153162958
 65     0.0050826448058776
 66     0.0448199389062053
 67    -0.0789357435743794
 68    -0.2108331444084228
 69    -0.0442573101133866
 70     0.1510809105133444
 71     0.2630608197707021
 72     0.0179726423751026
 73    -0.0596830991637302
 74    -0.0512888688322495
 75    -0.0229385920592707
 76    -0.0769904864585993
 77     0.0442725085209533
 78     0.1509838386542384
 79     0.2631482487797336
 80    -0.0179639930635520
 81     0.0596491517834963
 82    -0.0512886238383925
 83    -0.0229238328616394
 84     0.0770112835505475
 85    -0.0223473039528163
 86     0.1140901186511575
 87     0.2465651347988400
 88    -0.0276620926582404
 89     0.0108948043875670
 90    -0.0305375856145718
 91    -0.0195293251854283
 92     0.1123218676561980
 93     0.0223075266633852
 94     0.1141557929338642
 95     0.2464455414432520
 96     0.0278308832897235
 97    -0.0108355105564303
 98    -0.0305462497053912
 99    -0.0196003999990198
 100    -0.1122964444241716
 101    -0.0000425745580013
 102     0.2542956463855369
 103     0.0763461932088560
 104    -0.0000983104922649
 105    -0.0000200329590969
 106     0.0614064119602530
 107     0.0979471764308468
 108    -0.0000290187312322
 109     0.0000665205665299
 110     0.0921517929969349
 111     0.0435910979993833
 112     0.0001004620214515
 113    -0.0000145294727061
 114     0.0273849752741428
 115     0.0418628551988611
 116     0.0000232901216398
 117    -0.0000833674652359
 118     0.0388016458219608
 119     0.0193179662307336
 120     0.0000191957982212
 121     0.0000211748164095
 122     0.0107073278254111
 123     0.0163308851982013
 124     0.0000006460017251
 125     0.0056028375683560
 126    -0.0025662559848089
 127     0.0255422737601716
 128     0.0013226299165434
 129    -0.0054908421240482
 130     0.0025728972840958
 131    -0.0256268790556994
 132    -0.0013263499407937
 133     0.0729942254053737
 134     0.0028551952509750
 135    -0.0247239309935361
 136    -0.0016103276553097
 137    -0.0731234909895366
 138    -0.0028592660324924
 139     0.0246934972439488
 140     0.0016085953610373
 141     0.0927982931435798
 142     0.0038065016370580
 143     0.0252683732061825
 144     0.0009866155925873
 145    -0.0927544207068524
 146    -0.0038032208832563
 147    -0.0252034041086201
 148    -0.0009846569313239
 149    -0.0023227852468737
 150     0.0000086697482986
 151    -0.0015228267331701
 152     0.0000056821954681
 153     0.0000048931906007
 154     0.0000020335698311
 155     0.0001134176355443
 156     0.0001721541191331
 157    -0.0000015802709022
 158     0.0000670200524334
 159     0.0000539651237553
 160     0.0000273463590689
 161     0.0000339664814688
 162    -0.0000076373082399
 163    -0.0000057038314369
 164    -0.0000189266908121
 165    -0.0000354621925971
 166     0.0000044963595172
 167    -0.0001499875780560
 168     0.0000389962648547
 169     0.0000393629392819
 170     0.0000349990928058
 171    -0.0001134970539816
 172    -0.0000886427158063
 173    -0.0000222025153564
 174     0.0000160695693191
 175     0.0000640809624419
 176    -0.0000525152458439
 177     0.0000459488633247
 178    -0.0001557112874751
 179     0.0000221048927417
 180     0.0001214394965278
 181     0.0000955059304900
 182     0.0000240101402109
 183    -0.0000068117274238
 184    -0.0000686153105299
 Sym= 25A
 Ene= -0.184257
 Spin= Alpha
 Occup= 2.000000
  1    -0.0012607405675999
  2    -0.0007919830507517
  3    -0.0021843553082900
  4    -0.0013728892956900
  5    -0.0002690140073285
  6    -0.0016260272067450
  7    -0.0010430897420255
  8    -0.0006116432781833
  9    -0.0004645731909031
 10     0.0025145589520632
 11     0.0015796885385437
 12    -0.0000000130204322
 13     0.0000001273308312
 14    -0.0002664245723560
 15    -0.0016154520528018
 16    -0.0000003622975599
 17     0.0012302425493287
 18    -0.0004603736541815
 19    -0.0012609657951854
 20    -0.0007919799460629
 21     0.0021847178688730
 22     0.0013731401901699
 23    -0.0002688465813677
 24    -0.0016262365292590
 25     0.0010437154523634
 26    -0.0006124242395974
 27    -0.0004629635185515
 28    -0.0000027913318247
 29    -0.0000018802172452
 30    -0.0000013268082371
 31    -0.0000028671421022
 32    -0.0337479828789461
 33    -0.0136788749177332
 34    -0.0000003571294352
 35     0.0000011154980213
 36    -0.0114086267387662
 37    -0.1396606552442660
 38    -0.0000253759506602
 39    -0.0000739491695072
 40     0.1049563096761747
 41     0.2040741387663430
 42    -0.0000020828590663
 43    -0.0000312160618662
 44     0.1573992495761952
 45     0.0453812271970205
 46    -0.0001132428896638
 47     0.0000032449470914
 48    -0.2308806974778446
 49     0.0894831084867784
 50    -0.0000185244657132
 51    -0.0000287409347726
 52    -0.2063881178224366
 53     0.1663925982964043
 54     0.0067005503747732
 55     0.1348156950017141
 56    -0.0978079563534565
 57    -0.1602481563793083
 58     0.0000437858378090
 59    -0.1127709375101480
 60    -0.0504759429375213
 61     0.1663811930518015
 62    -0.0067807454068857
 63    -0.1347558266856309
 64    -0.0979224403653781
 65    -0.1602705260786957
 66    -0.0001038421085659
 67     0.1127828713886634
 68    -0.0503719436243095
 69    -0.0156473543779686
 70     0.1085555378948844
 71    -0.1199008883019600
 72    -0.0428667842119880
 73    -0.1123203113298312
 74    -0.0059203649856443
 75    -0.0171203370767171
 76     0.0603702237805199
 77    -0.0156940776309780
 78    -0.1085792312988045
 79     0.1197374852773640
 80    -0.0427594121958696
 81    -0.1123687525742984
 82     0.0059256460957601
 83     0.0171615390121080
 84     0.0603192996253577
 85     0.0052503713227746
 86    -0.0808802316795185
 87     0.1162247120355814
 88    -0.0123856019393017
 89     0.1421622026984861
 90     0.0367382271496807
 91     0.0453749858926273
 92     0.0458104463980462
 93     0.0052211639201179
 94     0.0808645672772247
 95    -0.1163768199407614
 96    -0.0125001328296486
 97     0.1421810582849805
 98    -0.0367175139254696
 99    -0.0453454015667194
 100     0.0459040582541800
 101    -0.1007103625770576
 102    -0.0000482266504569
 103     0.0000336166702789
 104    -0.1863377148941042
 105    -0.0794384698283024
 106    -0.0000085000778327
 107    -0.0000703745556048
 108    -0.1474038992355240
 109     0.0691244464419818
 110    -0.0000265251246774
 111    -0.0000280646853876
 112     0.1028470751580572
 113    -0.0985747154621349
 114    -0.0000419962177843
 115     0.0000064787005830
 116     0.1493212916404766
 117    -0.1086041603735837
 118    -0.0000086631601753
 119    -0.0000108634623312
 120     0.0172769975121954
 121     0.1241975524684449
 122    -0.0000031829112784
 123    -0.0000084939695064
 124     0.0136298872074166
 125     0.2147124047378250
 126     0.0134008417335023
 127    -0.1844647970062364
 128    -0.0100225083801927
 129     0.2147155626883102
 130     0.0133952711706303
 131    -0.1844332695090805
 132    -0.0100190652826718
 133    -0.1331305215834436
 134    -0.0106683531208730
 135    -0.1000121697546626
 136    -0.0042710627866545
 137    -0.1330323511338513
 138    -0.0106619592157071
 139    -0.1000262779773240
 140    -0.0042718131011695
 141     0.1120023054537605
 142     0.0068247517903825
 143     0.1225860065282079
 144     0.0046993116067438
 145     0.1120976597200644
 146     0.0068280325780667
 147     0.1226056336765975
 148     0.0046991929929408
 149     0.0000016609655111
 150    -0.0000000739728587
 151    -0.0000003923724775
 152     0.0000025633557245
 153     0.0329754908642162
 154     0.0130111107590940
 155    -0.0000000179293154
 156    -0.0000015809335071
 157    -0.0105323618148146
 158    -0.0012033797715488
 159     0.0007549281907912
 160     0.0020844905613033
 161    -0.0013098341797966
 162     0.0002447331972573
 163     0.0015266259494128
 164    -0.0009521748320799
 165     0.0005585119898530
 166    -0.0003890415035947
 167     0.0024061485365143
 168    -0.0015102608980088
 169     0.0000000915558447
 170     0.0000003455397983
 171     0.0002443116410548
 172     0.0015227806043555
 173     0.0000002611329584
 174    -0.0011268609639103
 175    -0.0003906787085918
 176    -0.0012048623974855
 177     0.0007554066696201
 178    -0.0020868770978591
 179     0.0013113564826246
 180     0.0002455315013166
 181     0.0015291643047716
 182     0.0009538185047580
 183     0.0005591356578995
 184    -0.0003916141558260
 Sym= 26A
 Ene= -0.175408
 Spin= Alpha
 Occup= 2.000000
  1    -0.0003441699792840
  2    -0.0002742067331326
  3    -0.0009353844217480
  4    -0.0001470585794541
  5    -0.0006950194371728
  6    -0.0006410124928633
  7    -0.0001437667250299
  8     0.0000849020117343
  9    -0.0005551287451341
 10    -0.0008834184315547
 11    -0.0002393643863966
 12     0.0002319837946726
 13    -0.0002261066231762
 14     0.0006239018353129
 15     0.0005728196032801
 16     0.0002106669340900
 17    -0.0000765639832919
 18     0.0004943065140663
 19     0.0003994704538091
 20    -0.0003240438285707
 21     0.0001128309912277
 22    -0.0002200339403560
 23     0.0000696794772798
 24     0.0000674467052263
 25     0.0001682887061045
 26     0.0003149189651337
 27     0.0000621470123895
 28    -0.0114864342516132
 29    -0.0000691059249901
 30    -0.0081482909417596
 31    -0.0000491913541697
 32     0.0000247742094282
 33     0.0000085652195505
 34    -0.0013439615352070
 35    -0.0018422561146608
 36     0.0000066884157292
 37    -0.0000563117010664
 38    -0.0331192567759110
 39     0.2389828754421398
 40    -0.0000006746429222
 41     0.0000039221123155
 42     0.0435677802166420
 43     0.2154534845043756
 44    -0.0000305665096126
 45     0.0000221557852165
 46    -0.1010158633278589
 47    -0.1521424295829133
 48    -0.0000178776162258
 49     0.0000109186896158
 50     0.0750127417780703
 51     0.1833248933682214
 52    -0.0000055294282903
 53     0.0600832877497435
 54    -0.0047391620798392
 55    -0.1249277950184377
 56    -0.1732242417121055
 57    -0.0296783321731695
 58     0.0161798803296852
 59    -0.1474664885487534
 60     0.1301318659333315
 61    -0.0600320874972464
 62    -0.0046653043937193
 63    -0.1249820730685360
 64     0.1732467549261187
 65     0.0296589718354532
 66     0.0161362990713959
 67    -0.1474131256976730
 68    -0.1301835433062249
 69    -0.0335134920842818
 70    -0.1822780150801508
 71    -0.1404088722323897
 72    -0.1018156008191140
 73    -0.0334667424658195
 74    -0.0789965195669168
 75    -0.0665170382301932
 76    -0.1504325324373658
 77     0.0334851569548250
 78    -0.1822590294427678
 79    -0.1404391557428172
 80     0.1018742478685498
 81     0.0334863493071729
 82    -0.0789976082345207
 83    -0.0664811582404493
 84     0.1504323976679182
 85     0.0225827472251974
 86    -0.2474644255484456
 87    -0.1327323223524166
 88     0.0780333627568387
 89    -0.0014305503646245
 90    -0.0590110540738354
 91    -0.0572144838825893
 92     0.1654871462764811
 93    -0.0225614727553445
 94    -0.2474561722484155
 95    -0.1326692415379652
 96    -0.0782145020046624
 97     0.0014357064920067
 98    -0.0590120597100976
 99    -0.0573064895941719
 100    -0.1654637347991548
 101     0.0000134727501101
 102    -0.2068031876907340
 103    -0.2689621958190431
 104    -0.0000109486622394
 105    -0.0000101387499821
 106     0.1043022892519798
 107     0.1562535295664224
 108     0.0000102572751320
 109    -0.0000588914067848
 110    -0.0909171260884277
 111    -0.1281749974160777
 112    -0.0000734054670262
 113     0.0000109341068347
 114     0.0484687785351644
 115     0.0710442755840340
 116    -0.0000159283752839
 117     0.0000471513060824
 118    -0.0427177623333508
 119    -0.0602391423565154
 120    -0.0000288271377040
 121    -0.0000118310926324
 122     0.0205819843873888
 123     0.0301468421785602
 124    -0.0000035062798967
 125    -0.0043614654073431
 126     0.0045198661267899
 127    -0.0649297347754752
 128    -0.0036078895856678
 129     0.0044232715636995
 130    -0.0045136230966011
 131     0.0648533102767787
 132     0.0036031254686056
 133    -0.0541326487731289
 134    -0.0056728052949041
 135    -0.0267726877940447
 136    -0.0009041357425735
 137     0.0541863760505088
 138     0.0056721066828612
 139     0.0267767036961527
 140     0.0009045010380013
 141     0.0100741714244590
 142     0.0020345398813884
 143     0.0100067672310987
 144     0.0005188435028528
 145    -0.0100181012157230
 146    -0.0020313315150052
 147    -0.0099673749854662
 148    -0.0005182045525542
 149    -0.0051209995721048
 150     0.0000274002446413
 151    -0.0034962454028285
 152     0.0000186988237426
 153    -0.0000042898381397
 154    -0.0000014096955952
 155     0.0004482543213206
 156     0.0006560658650168
 157     0.0000015360437344
 158     0.0001758181876304
 159     0.0001444412749703
 160     0.0000601582407783
 161     0.0000945039176079
 162    -0.0000257682334552
 163    -0.0000220574469752
 164    -0.0000635061804426
 165    -0.0001192338829612
 166     0.0000181261840569
 167    -0.0003893402901258
 168     0.0001035224233171
 169     0.0001030830333304
 170     0.0000975083031664
 171    -0.0002824732568964
 172    -0.0002431377010241
 173    -0.0000767329141485
 174     0.0000360922854821
 175     0.0001935836819405
 176    -0.0001437598273839
 177     0.0001211296119408
 178    -0.0004076580769677
 179     0.0000600504539869
 180     0.0003087612089850
 181     0.0002658587079217
 182     0.0000625559155986
 183    -0.0000310366414563
 184    -0.0002111898999180
 Sym= 27A
 Ene= -0.172351
 Spin= Alpha
 Occup= 2.000000
  1     0.0033727463296059
  2     0.0021565731000153
  3     0.0058439620950715
  4     0.0037380487631468
  5     0.0006285498814420
  6     0.0036704637481334
  7     0.0021540667386034
  8     0.0012620333065432
  9     0.0010355329907687
 10    -0.0067247142584124
 11    -0.0043004935730655
 12    -0.0000000127737793
 13    -0.0000000808244144
 14     0.0006215891902955
 15     0.0036457575763955
 16    -0.0000003891084153
 17    -0.0025345188092183
 18     0.0010303180742483
 19     0.0033734436298253
 20     0.0021569833687592
 21    -0.0058451925724222
 22    -0.0037389281467521
 23     0.0006288301439658
 24     0.0036714975675420
 25    -0.0021546390317256
 26     0.0012619033223404
 27     0.0010372410181942
 28     0.0000077690690559
 29     0.0000024443197109
 30     0.0000024881564192
 31    -0.0000021444774492
 32     0.0707224576313692
 33     0.0281069379655508
 34     0.0000004663802739
 35    -0.0000024005535647
 36     0.0201562566152923
 37    -0.2229381745100383
 38     0.0000036505316466
 39    -0.0000430914269215
 40    -0.1764076856774370
 41     0.1328364414001290
 42    -0.0000264418186512
 43     0.0000168760127112
 44    -0.2437651088495498
 45     0.0595317153380230
 46     0.0000417451340746
 47     0.0000340955775421
 48     0.0832668195039868
 49    -0.0304748654805759
 50     0.0000008735604826
 51    -0.0000134062375916
 52     0.1382019551333342
 53     0.0445708342113383
 54    -0.0000495827033989
 55     0.1936156484372143
 56     0.0090215695863205
 57    -0.0579612288108837
 58     0.0042196468388081
 59    -0.2652767759781634
 60    -0.1083069476897319
 61     0.0446011323365373
 62     0.0001035537228424
 63    -0.1936272796496007
 64     0.0089210677066803
 65    -0.0580235851423801
 66    -0.0042265436292466
 67     0.2651967846300347
 68    -0.1082589257432225
 69    -0.0591322332853193
 70    -0.0202070458760978
 71     0.0399800807939440
 72     0.1199841645666732
 73     0.1091029380587915
 74     0.0095718181019309
 75    -0.0056427585750630
 76    -0.0081753671193801
 77    -0.0591563958725970
 78     0.0203392693190017
 79    -0.0399483166470003
 80     0.1199383003337902
 81     0.1091012952582366
 82    -0.0095412418175013
 83     0.0056312980378476
 84    -0.0082267730830668
 85     0.0399794752712374
 86     0.0245079385081113
 87    -0.0268621512281599
 88    -0.1353758141066324
 89    -0.0860602915125233
 90     0.0124450150683376
 91     0.0106431373213043
 92    -0.0613741559252667
 93     0.0399819457924369
 94    -0.0243614618525494
 95     0.0269706379506913
 96    -0.1353481831359447
 97    -0.0860723505498779
 98    -0.0124279975795841
 99    -0.0106502087039061
 100    -0.0613313770937221
 101     0.0335751536847160
 102     0.0000319146222282
 103     0.0000165130408421
 104     0.2036541170191138
 105     0.0128287668439307
 106    -0.0000320564324546
 107     0.0000202298348566
 108     0.1790602582127091
 109    -0.1392006941003309
 110     0.0000353745684596
 111     0.0000493376431750
 112    -0.1493582217832291
 113     0.1122605926841098
 114     0.0000246208677738
 115    -0.0000308389566961
 116    -0.1457211904371530
 117     0.1577746721546496
 118     0.0000150741483307
 119     0.0000212093117865
 120    -0.0553812680571983
 121    -0.1350100031394179
 122    -0.0000010991420010
 123    -0.0000039786415516
 124    -0.0292004637147378
 125     0.1724045529008665
 126     0.0112976557874851
 127    -0.2646951846498338
 128    -0.0130783474103242
 129     0.1724596117209941
 130     0.0112991436534384
 131    -0.2646316954232564
 132    -0.0130738809188508
 133     0.0688929879717014
 134    -0.0001880969069886
 135     0.0425019391121331
 136     0.0056050587427990
 137     0.0688861511571443
 138    -0.0001911992400540
 139     0.0425136238319418
 140     0.0056038312072545
 141     0.0545869358594542
 142     0.0038503153383270
 143    -0.0551005055059512
 144    -0.0038567256434978
 145     0.0546145025845544
 146     0.0038523235027378
 147    -0.0550987107862491
 148    -0.0038564000181778
 149     0.0000001582084758
 150    -0.0000007877825078
 151     0.0000017313716995
 152    -0.0000018880839579
 153    -0.0476725683677098
 154    -0.0191707654876471
 155    -0.0000000048452955
 156     0.0000022355051912
 157     0.0146941959157456
 158     0.0021797986967041
 159    -0.0014067349584395
 160    -0.0037761012703501
 161     0.0024414158073012
 162    -0.0003848479725511
 163    -0.0025348760314483
 164     0.0015190513748581
 165    -0.0008902248285871
 166     0.0007286679789292
 167    -0.0043582253696027
 168     0.0028146370787897
 169    -0.0000002945301413
 170    -0.0000008348887472
 171    -0.0003834104904791
 172    -0.0025288052888474
 173    -0.0000002603114506
 174     0.0017955903302505
 175     0.0007311611135262
 176     0.0021829371311581
 177    -0.0014076300922584
 178     0.0037809510157231
 179    -0.0024446412557427
 180    -0.0003862839539705
 181    -0.0025393378733668
 182    -0.0015216809198261
 183    -0.0008914100301154
 184     0.0007321349922031
 Sym= 28A
 Ene= -0.166987
 Spin= Alpha
 Occup= 2.000000
  1     0.0001462977382717
  2    -0.0001018950954180
  3    -0.0000073836152827
  4     0.0000800142391588
  5     0.0000463369950466
  6     0.0000408266875283
  7    -0.0000439125474699
  8     0.0000898360246076
  9     0.0000335340191709
 10    -0.0002627344184856
 11    -0.0000710452268444
 12    -0.0000865408768570
 13     0.0000853332563944
 14     0.0001851525816094
 15     0.0001600074654358
 16    -0.0000675169476093
 17    -0.0000234630478052
 18     0.0001283439720415
 19    -0.0001262163345499
 20    -0.0000808601068284
 21     0.0003058001427678
 22     0.0000547395724135
 23    -0.0002320336568624
 24    -0.0002006200823790
 25     0.0000407163402958
 26     0.0000139338586634
 27    -0.0001614875125724
 28    -0.0029733678766448
 29    -0.0000226261546787
 30     0.0025814760984389
 31     0.0000197135060977
 32     0.0000088994582108
 33     0.0000032164834565
 34     0.0004011010464263
 35    -0.0004532964965083
 36     0.0000025161534315
 37    -0.0000052770619362
 38    -0.0968065450131464
 39     0.2342979781609014
 40     0.0000024003862096
 41    -0.0000406094928562
 42    -0.2351617480888446
 43     0.1973410817782267
 44     0.0000746289764101
 45     0.0000022183561958
 46     0.0174014026153789
 47    -0.0017207447897711
 48     0.0000192273184727
 49     0.0000317406008048
 50    -0.2545944527043037
 51    -0.0576656506192636
 52    -0.0000049570331330
 53     0.0619405221855048
 54    -0.1122433702469739
 55    -0.2624826019027402
 56     0.0137698468386734
 57     0.0793899966896906
 58    -0.1512740809579473
 59    -0.2212675339233503
 60    -0.0058498216037398
 61    -0.0619381238795612
 62    -0.1122096582903910
 63    -0.2624796456356998
 64    -0.0136617541280416
 65    -0.0793620066431647
 66    -0.1512347099656503
 67    -0.2213485892627376
 68     0.0058850698538353
 69    -0.0270184359923076
 70    -0.0051058140006812
 71     0.0096759257173008
 72    -0.0307169555788714
 73     0.0243311243002555
 74    -0.0240637458585626
 75     0.1087641479055911
 76     0.2172986833733935
 77     0.0270207185501877
 78    -0.0050737957473071
 79     0.0096428738593526
 80     0.0307505525521317
 81    -0.0243855538664871
 82    -0.0240245568035191
 83     0.1087443891901571
 84    -0.2172968925871777
 85     0.0025653424597978
 86    -0.0475954522457184
 87     0.0686815278592473
 88     0.0193391570189938
 89     0.0245073231874583
 90     0.0095745816312257
 91     0.1022345177951389
 92    -0.2159946216025676
 93    -0.0025677283611654
 94    -0.0476010160963499
 95     0.0687191227670690
 96    -0.0193281511114599
 97    -0.0244711594063390
 98     0.0095038982553435
 99     0.1022496995797687
 100     0.2159822835365649
 101     0.0000126422400577
 102     0.0579663097725026
 103    -0.0686429364423510
 104     0.0000121909151200
 105    -0.0000274779579868
 106    -0.1765197061230375
 107    -0.1469914274416229
 108     0.0000182466250952
 109    -0.0000161169246428
 110     0.0242185468394094
 111    -0.0280131400964025
 112    -0.0000160780312605
 113    -0.0000068236027501
 114    -0.0863292516115376
 115    -0.0782291838112599
 116    -0.0000054221084291
 117     0.0000167673245249
 118     0.0118434200254763
 119    -0.0136425493421961
 120    -0.0000077733843382
 121    -0.0000081712528350
 122    -0.0391151694897331
 123    -0.0355424052690542
 124    -0.0000015298645765
 125    -0.1822242483863452
 126    -0.0072614081512752
 127    -0.1314802852326640
 128    -0.0038352985386067
 129     0.1821907373612587
 130     0.0072565795512374
 131     0.1315273858213026
 132     0.0038382358316188
 133    -0.0255701475060393
 134    -0.0015364742139298
 135    -0.0360598584148028
 136     0.0004431961235442
 137     0.0256086309608353
 138     0.0015397997373740
 139     0.0359855606347427
 140    -0.0004468265118194
 141     0.0576995650793869
 142     0.0043094058878833
 143    -0.0162213677842860
 144    -0.0000789095924487
 145    -0.0577116160417314
 146    -0.0043100735937528
 147     0.0162905699030990
 148     0.0000826585420978
 149     0.0068687927376526
 150    -0.0000467503996784
 151     0.0075607415070519
 152    -0.0000513532716864
 153    -0.0000031596028063
 154    -0.0000017876068300
 155    -0.0011462709160001
 156    -0.0010399408193176
 157     0.0000008089127827
 158    -0.0004121565322387
 159    -0.0002377876523824
 160     0.0000708031286178
 161    -0.0002197984634142
 162     0.0001896624706343
 163     0.0001645184678774
 164     0.0001022332323312
 165     0.0002273649355068
 166    -0.0001328399546535
 167     0.0005903382607042
 168    -0.0001581633304230
 169    -0.0002497953661374
 170    -0.0002455960531330
 171     0.0004186558853063
 172     0.0003638541784261
 173     0.0001936172868283
 174    -0.0000509909305519
 175    -0.0002911186230957
 176     0.0003681056820350
 177    -0.0001760834359685
 178     0.0007811247583171
 179    -0.0001645708248678
 180    -0.0006096329040008
 181    -0.0005311034695092
 182    -0.0000913050433965
 183     0.0000097915160156
 184     0.0004237368567731
 Sym= 29A
 Ene= -0.164211
 Spin= Alpha
 Occup= 2.000000
  1     0.0000787359971534
  2     0.0001484832169762
  3     0.0003633849451377
  4     0.0000256973212442
  5     0.0002440124746152
  6     0.0002185973971805
  7     0.0000744901573548
  8    -0.0000714286626803
  9     0.0001808671744347
 10     0.0004415451573420
 11     0.0001204173938358
 12    -0.0000571289446617
 13     0.0000574086272590
 14    -0.0003035674170134
 15    -0.0002738751738784
 16    -0.0000460533725223
 17     0.0000361620040710
 18    -0.0002307052946529
 19    -0.0001025832016755
 20     0.0001627347700710
 21    -0.0001640434378750
 22     0.0000648499391448
 23     0.0000608847012117
 24     0.0000579926955658
 25    -0.0000778082400542
 26    -0.0001227024748684
 27     0.0000498253741367
 28     0.0048588938024726
 29     0.0000401621010961
 30     0.0016540738307725
 31     0.0000136804439115
 32     0.0000036588323732
 33     0.0000020506893322
 34     0.0002784805018911
 35     0.0008860611119556
 36     0.0000009859378997
 37     0.0000149955354588
 38     0.0687800342041502
 39    -0.0017779166134837
 40    -0.0000391558256371
 41    -0.0000244367676086
 42     0.2056827049278025
 43    -0.0116217560308954
 44     0.0000453844552605
 45     0.0000022622261862
 46    -0.0178568435510470
 47     0.0454739858962307
 48     0.0000467340689650
 49     0.0000810741731297
 50     0.2454312934219263
 51     0.0179565958629780
 52    -0.0000353876803205
 53     0.0752064272027385
 54     0.0876855709804463
 55    -0.1955302602292157
 56     0.2765989737959059
 57     0.0841569282006940
 58     0.1294562538913288
 59    -0.1813739193558344
 60    -0.2710101402898287
 61    -0.0752167008997635
 62     0.0875671268230511
 63    -0.1955170205943498
 64    -0.2765435536721447
 65    -0.0841279033822868
 66     0.1295415685549411
 67    -0.1814544628163222
 68     0.2709282328465547
 69     0.0245246566515721
 70     0.0055015854646044
 71     0.0320955473878073
 72     0.0845441617474004
 73     0.0288905601330430
 74     0.0242269495669157
 75    -0.1537587011879848
 76    -0.0737444680530341
 77    -0.0245119148875501
 78     0.0055562732587844
 79     0.0321079393321935
 80    -0.0845242524982353
 81    -0.0289752795680569
 82     0.0242647990716920
 83    -0.1536784949390578
 84     0.0737674601792650
 85    -0.0268296172471514
 86     0.0261557095784921
 87     0.0488330237434138
 88    -0.0628903021362969
 89     0.0016713645439326
 90     0.0026483392889773
 91    -0.1180392503371093
 92     0.0608599126926811
 93     0.0268289103311395
 94     0.0261475955074945
 95     0.0488385379458410
 96     0.0629224705506935
 97    -0.0015658114939024
 98     0.0025838159852046
 99    -0.1181518818417148
 100    -0.0607145799344834
 101     0.0000130906296238
 102     0.0439977616793402
 103     0.0557659578283572
 104     0.0000326227458019
 105    -0.0000392059460771
 106     0.1305587093825988
 107     0.0530151193492660
 108    -0.0000132917583957
 109    -0.0000020109281270
 110     0.0146043172583859
 111     0.0405711857716146
 112    -0.0000003277209920
 113    -0.0000305553570460
 114     0.0555135483516040
 115     0.0221722479823074
 116     0.0000422303797229
 117     0.0000103952180153
 118     0.0072414048441843
 119     0.0213068018804768
 120     0.0000002093746170
 121     0.0000313559528458
 122     0.0253738616787942
 123     0.0099599711173538
 124     0.0000159418037422
 125    -0.2293198505740665
 126    -0.0118741704919105
 127    -0.2155964033987428
 128    -0.0069377883465919
 129     0.2292516094634714
 130     0.0118651787486770
 131     0.2156457409088072
 132     0.0069396818108305
 133     0.0459928429313752
 134     0.0091589503478649
 135    -0.0454752801500244
 136     0.0004663062310520
 137    -0.0459571726567815
 138    -0.0091531247350995
 139     0.0453881586615548
 140    -0.0004744532029106
 141     0.0339450913879350
 142     0.0005606066581377
 143    -0.0387146534908390
 144    -0.0014400067321172
 145    -0.0339741714080643
 146    -0.0005631110559218
 147     0.0388957930484806
 148     0.0014478207315113
 149    -0.0020131199225949
 150     0.0000148506748070
 151    -0.0051278884696047
 152     0.0000376623234101
 153     0.0000164615665044
 154     0.0000065633492998
 155     0.0007917862465948
 156     0.0002950209498348
 157    -0.0000039683816939
 158     0.0002833948454175
 159     0.0000876799679057
 160    -0.0001907558876724
 161     0.0001449104080132
 162    -0.0002171568660959
 163    -0.0001872312414458
 164    -0.0000327303467810
 165    -0.0001101541294290
 166     0.0001497429690292
 167    -0.0001798678969495
 168     0.0000474062938367
 169     0.0001776626979152
 170     0.0001763043760369
 171    -0.0001288765042930
 172    -0.0001083951994157
 173    -0.0001350875789377
 174     0.0000152711208171
 175     0.0000847099181108
 176    -0.0002706158422811
 177     0.0000421615227484
 178    -0.0004133311361298
 179     0.0001291059979174
 180     0.0003470437320966
 181     0.0002992401621492
 182     0.0000255699294791
 183     0.0000417648495185
 184    -0.0002351564566986
 Sym= 30A
 Ene= -0.160660
 Spin= Alpha
 Occup= 2.000000
  1     0.0041524094095860
  2     0.0027640136030190
  3     0.0071954869490472
  4     0.0047904670478552
  5     0.0005256057728490
  6     0.0040668336594214
  7     0.0021891883018738
  8     0.0012813154719306
  9     0.0011747740893273
 10    -0.0082759644199756
 11    -0.0055096077778022
 12     0.0000000303122760
 13    -0.0000002075097852
 14     0.0005166419997295
 15     0.0040393309629831
 16    -0.0000002641258509
 17    -0.0025721581709795
 18     0.0011698595800278
 19     0.0041535135752160
 20     0.0027645391115734
 21    -0.0071973351909541
 22    -0.0047918013524567
 23     0.0005259454530071
 24     0.0040680641023536
 25    -0.0021898701463196
 26     0.0012813948032141
 27     0.0011759625702689
 28     0.0000085632094999
 29     0.0000036903883415
 30     0.0000019723977099
 31    -0.0000016250333748
 32     0.0673425351876711
 33     0.0261189136437106
 34     0.0000004874193630
 35    -0.0000029126643436
 36     0.0167830926043108
 37    -0.0228312046331269
 38     0.0000064938750528
 39    -0.0000280041793141
 40    -0.0107026609935125
 41    -0.0956566334433069
 42    -0.0000123931100951
 43    -0.0000305590080962
 44     0.0540192779050113
 45     0.0485574149380790
 46     0.0000194485716338
 47    -0.0000004835743891
 48     0.0410306595737712
 49     0.2638217924084771
 50    -0.0000075976534765
 51     0.0000130073488152
 52     0.0924618709659246
 53    -0.0247785137216080
 54    -0.0109949904237573
 55    -0.0589152313668412
 56     0.1398046923233191
 57     0.0493752341799512
 58    -0.0139417894814634
 59     0.0433632282240969
 60    -0.0985057378070892
 61    -0.0247208301479990
 62     0.0110448271149699
 63     0.0590758142321384
 64     0.1399212264111991
 65     0.0494449678658491
 66     0.0138873147221518
 67    -0.0432156863950184
 68    -0.0986254138765553
 69    -0.0084617430223274
 70    -0.0368676464764858
 71     0.0278337727589770
 72     0.1081350387633076
 73    -0.1123253674904718
 74    -0.1332089596085307
 75    -0.1727383409839110
 76     0.0251917369310408
 77    -0.0084660049607320
 78     0.0369185988662156
 79    -0.0278498468658634
 80     0.1081408665183646
 81    -0.1123160570276509
 82     0.1332143120015899
 83     0.1727906927764917
 84     0.0252011313468432
 85     0.0097236891027463
 86     0.0094671150835104
 87    -0.0238018329170540
 88    -0.0995622925790339
 89     0.1223982391026355
 90     0.1642022769485419
 91     0.2169553529708884
 92     0.1249099980913472
 93     0.0097139148706323
 94    -0.0093900985422486
 95     0.0238524617424481
 96    -0.0995685694210792
 97     0.1224273211415602
 98    -0.1641620078704502
 99    -0.2168541441988751
 100     0.1249251996072546
 101     0.0390963202723746
 102     0.0000122917613855
 103     0.0000018607328270
 104     0.1195045697041025
 105    -0.1979398680607720
 106    -0.0000266591726548
 107    -0.0000084995684662
 108     0.1328863240984906
 109    -0.0936275666827904
 110     0.0000206884750747
 111     0.0000214728790114
 112    -0.0814463838116201
 113    -0.0024166285230578
 114     0.0000026969714100
 115    -0.0000170585346477
 116    -0.0160634124396273
 117     0.1084195145908488
 118     0.0000108713382232
 119     0.0000112304879918
 120    -0.0554913866791644
 121    -0.0439802432807805
 122    -0.0000019167286063
 123    -0.0000065621211735
 124    -0.0030208339161108
 125    -0.1166442692289986
 126    -0.0083215800980360
 127     0.0010379035156479
 128     0.0051637270742595
 129    -0.1167893032447526
 130    -0.0083260658733650
 131     0.0009044011454531
 132     0.0051581272095625
 133     0.0729529193993683
 134     0.0064266402737008
 135    -0.2317754113041260
 136    -0.0152296319648150
 137     0.0729572544524580
 138     0.0064281118018642
 139    -0.2318178577193951
 140    -0.0152273817802261
 141     0.0327792707773017
 142     0.0014453416461428
 143     0.3075253476421874
 144     0.0148035544388426
 145     0.0328119094755803
 146     0.0014471741423844
 147     0.3074585563249054
 148     0.0147992896447892
 149     0.0000011420246388
 150    -0.0000033776712567
 151     0.0000007675169894
 152     0.0000094436342823
 153    -0.0156918738674891
 154    -0.0067737437528123
 155     0.0000003915610508
 156     0.0000007899430271
 157     0.0062763203507703
 158     0.0008630696149918
 159    -0.0006052292563313
 160    -0.0014952502012151
 161     0.0010515014075308
 162    -0.0000866572178961
 163    -0.0011050685746443
 164     0.0007021506451027
 165    -0.0004110479608546
 166     0.0004117078444881
 167    -0.0017254556815534
 168     0.0012113229453304
 169    -0.0000002685311578
 170    -0.0000009202078436
 171    -0.0000848510481690
 172    -0.0011022095440901
 173     0.0000012144969996
 174     0.0008306520919707
 175     0.0004090175611564
 176     0.0008645869527904
 177    -0.0006050398355786
 178     0.0014973406083864
 179    -0.0010530144857538
 180    -0.0000862442138492
 181    -0.0011063430937242
 182    -0.0007039008731886
 183    -0.0004134608329981
 184     0.0004074647419607
 Sym= 31A
 Ene= -0.154190
 Spin= Alpha
 Occup= 2.000000
  1    -0.0012363758473180
  2    -0.0003143530173736
  3    -0.0020998533993330
  4    -0.0005867109839993
  5    -0.0016546117210214
  6    -0.0013936942439741
  7    -0.0001657320614943
  8    -0.0001120226398808
  9    -0.0010826782854530
 10    -0.0011671614423316
 11    -0.0003187580142082
 12     0.0008095510489559
 13    -0.0008450945454498
 14     0.0007923138512171
 15     0.0006687593503878
 16     0.0005959264979281
 17    -0.0000948236325306
 18     0.0005235938844927
 19     0.0013157985133286
 20    -0.0005445393351687
 21    -0.0006952173065412
 22    -0.0007101855777305
 23     0.0008586120312857
 24     0.0007184061663202
 25     0.0001982470272270
 26     0.0005590493003761
 27     0.0005588618202218
 28    -0.0107357182417591
 29    -0.0001192653496963
 30    -0.0195003784777858
 31    -0.0002174828879583
 32    -0.0000085994534539
 33    -0.0000047761756738
 34    -0.0034970245423508
 35    -0.0019507226341769
 36    -0.0000017837446627
 37    -0.0000100454342992
 38     0.3191687753072643
 39     0.0902218234090907
 40    -0.0000555492708776
 41     0.0000091599954388
 42     0.2198229319340294
 43     0.0424848983724133
 44    -0.0000432977308383
 45    -0.0000150814400814
 46     0.0969855876218211
 47     0.0898452671866538
 48    -0.0000011394300018
 49     0.0000132484967377
 50    -0.0312773285539514
 51    -0.2636128199847220
 52     0.0000414216430659
 53    -0.0280583081664217
 54     0.2737837990122517
 55    -0.0701287045838400
 56    -0.0407871256601659
 57     0.0445973062969064
 58     0.2382015338924080
 59    -0.0029476058984091
 60     0.0704444085869152
 61     0.0280643364262274
 62     0.2737331963503612
 63    -0.0701344778768103
 64     0.0406617795506975
 65    -0.0445962912366921
 66     0.2381159598299611
 67    -0.0029440244288757
 68    -0.0705116817144141
 69     0.0196406171377259
 70    -0.0202597466795467
 71    -0.0002252835107433
 72     0.0383274015057874
 73    -0.0828790580991767
 74     0.1865677384244894
 75     0.0982986705774836
 76     0.0708172144272596
 77    -0.0196246527848857
 78    -0.0202433350996635
 79    -0.0002070395336722
 80    -0.0383570870924933
 81     0.0828717524695242
 82     0.1865779783222033
 83     0.0983169807247866
 84    -0.0708355974590701
 85    -0.0119486895760677
 86    -0.1090059526204201
 87    -0.1011513102825290
 88    -0.0258380580526206
 89    -0.0129640713172797
 90     0.1807687598394047
 91     0.1179720329771256
 92    -0.0386389739822056
 93     0.0119359920711159
 94    -0.1090002935730818
 95    -0.1011521178100807
 96     0.0258263737924169
 97     0.0129598547176962
 98     0.1807507978172133
 99     0.1180022116419826
 100     0.0386348575536227
 101     0.0000015609182567
 102    -0.2069336978909520
 103    -0.1184577864379116
 104    -0.0000620154444795
 105     0.0000012778973106
 106    -0.0603461548233956
 107    -0.2112778498205708
 108     0.0000260262712920
 109     0.0000108295873053
 110    -0.1272073486469428
 111    -0.0700176209911220
 112    -0.0000037236529806
 113    -0.0000018199473758
 114    -0.0179716536502864
 115    -0.0872066199399403
 116     0.0000141684173877
 117    -0.0000196469922788
 118    -0.0716726047231749
 119    -0.0394612200137759
 120     0.0000000229860826
 121     0.0000035965491519
 122    -0.0082164149283186
 123    -0.0426147248039923
 124     0.0000093879133609
 125    -0.0462677433296254
 126    -0.0057057143387683
 127     0.0467789536375434
 128     0.0048536917689720
 129     0.0462920209217719
 130     0.0057068225042987
 131    -0.0467746516286828
 132    -0.0048530733228313
 133     0.0271847923657896
 134     0.0067937535954731
 135     0.0873902304847327
 136    -0.0009846171571509
 137    -0.0271886845761337
 138    -0.0067908314086985
 139    -0.0874074917032821
 140     0.0009830237742760
 141    -0.0053576818715505
 142    -0.0014567878160678
 143     0.1249139011555584
 144     0.0056069093371104
 145     0.0053330286821876
 146     0.0014542837013778
 147    -0.1249116112809461
 148    -0.0056059155526660
 149     0.0101861369153154
 150    -0.0001003610878205
 151     0.0019664672269679
 152    -0.0000195390978117
 153     0.0000059370541456
 154     0.0000014360032096
 155    -0.0002598135855141
 156    -0.0016346601435248
 157    -0.0000016901912788
 158    -0.0001786565050183
 159    -0.0004150487596799
 160    -0.0005196886138813
 161    -0.0001271515745949
 162    -0.0002474164969980
 163    -0.0002092880216244
 164     0.0001611053596533
 165     0.0002260579363914
 166     0.0001602937648174
 167     0.0010933954194058
 168    -0.0002952898815953
 169    -0.0000869546786287
 170    -0.0000866354262297
 171     0.0007574073043602
 172     0.0006226417020455
 173     0.0000511568646315
 174    -0.0000906408747250
 175    -0.0004650943649506
 176     0.0000821599855971
 177    -0.0003895709783366
 178     0.0007984917399523
 179    -0.0000014931799255
 180    -0.0005119169960098
 181    -0.0004149319806537
 182    -0.0001643572234122
 183     0.0001658959374649
 184     0.0003040422759249
 Sym= 32A
 Ene= -0.148695
 Spin= Alpha
 Occup= 2.000000
  1    -0.0011832356481742
  2    -0.0001454932101558
  3    -0.0017029159247901
  4    -0.0006098839099496
  5    -0.0013402209105749
  6    -0.0011141766063407
  7    -0.0001063362838535
  8    -0.0001793193253242
  9    -0.0008050569510929
 10    -0.0005308939998302
 11    -0.0001092563729892
 12     0.0007519448476576
 13    -0.0007932528330591
 14     0.0004092375544103
 15     0.0003011677260219
 16     0.0004897307635840
 17    -0.0000275581524460
 18     0.0002478910814002
 19     0.0011424756818824
 20    -0.0003796123792865
 21    -0.0008151392687517
 22    -0.0005765464875309
 23     0.0009265032821570
 24     0.0006980236924150
 25     0.0001129563524592
 26     0.0003834209150547
 27     0.0005261082806427
 28    -0.0051023178212650
 29    -0.0000672351632056
 30    -0.0157778848265882
 31    -0.0002093324559284
 32    -0.0005056520424966
 33    -0.0001884535731612
 34    -0.0027337286933772
 35    -0.0009714502177973
 36    -0.0001009818465513
 37     0.0002088342564371
 38     0.1914888626252583
 39    -0.0330614967465430
 40    -0.0004917787267713
 41     0.0001478537953592
 42     0.0634308858516670
 43     0.0370194847940975
 44    -0.0004796776172688
 45    -0.0001067437577591
 46     0.0865072778008134
 47     0.0360416889408869
 48     0.0004010501993935
 49    -0.0000077572441112
 50     0.0177536315719745
 51     0.0623944858836192
 52     0.0005255616523825
 53    -0.0373322484357686
 54     0.1458064309895416
 55     0.0586078005808709
 56    -0.0418865755645881
 57     0.0139854536855730
 58     0.0930140813778629
 59     0.0264650629220166
 60     0.0636428433393319
 61     0.0371277427382780
 62     0.1457490751926082
 63     0.0581868742791129
 64     0.0413134633881567
 65    -0.0137306368762694
 66     0.0929804496753443
 67     0.0266733483397010
 68    -0.0631416280399157
 69     0.0151262986446952
 70    -0.0073494846711993
 71     0.0277427499582921
 72     0.0179519516709793
 73     0.0773988863798568
 74    -0.1781896184406383
 75    -0.1870946425756922
 76     0.2644996698792648
 77    -0.0151375651390073
 78    -0.0074147600726190
 79     0.0277314128809996
 80    -0.0191107330032277
 81    -0.0772911101185820
 82    -0.1776861665563833
 83    -0.1866077708488945
 84    -0.2638785123845914
 85    -0.0060373005291930
 86    -0.0276801466906542
 87    -0.0852818357239177
 88    -0.0115456715063416
 89     0.1014841018459722
 90    -0.1598955032577841
 91    -0.1630876486942643
 92    -0.2525382773716717
 93     0.0060882852144336
 94    -0.0277175022037590
 95    -0.0853119053356074
 96     0.0126514477505658
 97    -0.1015287307386247
 98    -0.1602884710887174
 99    -0.1635365115113944
 100     0.2521488327522703
 101    -0.0001363302117061
 102    -0.1401703682698576
 103    -0.0325370410089671
 104    -0.0003831904028397
 105    -0.0003242797973494
 106    -0.0035820644295315
 107     0.0509737255551483
 108     0.0005793430673033
 109     0.0004348162548615
 110    -0.0884761032911596
 111    -0.0278406335484366
 112     0.0002463059018384
 113     0.0003738715857701
 114    -0.0458679283204710
 115    -0.0316192868151113
 116    -0.0003343195985109
 117    -0.0005498133742403
 118    -0.0521943568299268
 119    -0.0168861912518606
 120     0.0004056534210615
 121    -0.0004849003738474
 122    -0.0258448593000120
 123    -0.0189294745531285
 124    -0.0002481091326490
 125     0.0544819912976640
 126     0.0007191112104492
 127     0.0349235109102243
 128     0.0066699747223681
 129    -0.0540638680422739
 130    -0.0006906211928727
 131    -0.0347647989982908
 132    -0.0066509468360210
 133     0.0387061255346962
 134     0.0049572143142903
 135    -0.2696316632357816
 136    -0.0136158768989593
 137    -0.0392915947032409
 138    -0.0050053199726265
 139     0.2688703048237062
 140     0.0135721837316114
 141    -0.0404019961492606
 142    -0.0040882508900801
 143    -0.2289788623598382
 144    -0.0075439370326770
 145     0.0398581050350935
 146     0.0040541809290671
 147     0.2292404987433671
 148     0.0075603593790893
 149     0.0049780829488841
 150    -0.0000577832904827
 151     0.0068066270310836
 152    -0.0000789909525980
 153    -0.0003315074334826
 154    -0.0001294305716579
 155    -0.0012940128650078
 156    -0.0010190014167881
 157     0.0000774803359801
 158    -0.0004710287253914
 159    -0.0002848172582004
 160     0.0001316511110245
 161    -0.0002470617364730
 162     0.0002711693466273
 163     0.0001978414758219
 164     0.0001114676945515
 165     0.0002316412854032
 166    -0.0001597793707802
 167     0.0005276232903262
 168    -0.0001225637289165
 169    -0.0003067353401326
 170    -0.0003295463425266
 171     0.0003815761944142
 172     0.0003040410214495
 173     0.0002211734345365
 174    -0.0000286177374408
 175    -0.0002508413921579
 176     0.0004893422705790
 177    -0.0001897426357602
 178     0.0009182158483182
 179    -0.0002472270441084
 180    -0.0006566039113281
 181    -0.0005788010845741
 182    -0.0000941485721345
 183    -0.0000152252345830
 184     0.0004316749647620
 Sym= 33A
 Ene= -0.148163
 Spin= Alpha
 Occup= 2.000000
  1    -0.0177248769050790
  2    -0.0126640120143875
  3    -0.0307208391173339
  4    -0.0219385403919522
  5    -0.0002583950134671
  6    -0.0156065281577921
  7    -0.0073545737114195
  8    -0.0042994600268991
  9    -0.0043113521228940
 10     0.0353119944783142
 11     0.0252236124477136
 12    -0.0000022937819294
 13     0.0000033560096959
 14    -0.0002251479959970
 15    -0.0155037673774863
 16    -0.0000002013612390
 17     0.0086282653951123
 18    -0.0043009750276916
 19    -0.0177368636422572
 20    -0.0126661998936933
 21     0.0307369821619026
 22     0.0219490985054406
 23    -0.0002655543887386
 24    -0.0156164049592095
 25     0.0073567681512144
 26    -0.0043009323209820
 27    -0.0043192912011958
 28    -0.0000284377034631
 29    -0.0000177533646629
 30     0.0000345458453751
 31     0.0000071917829183
 32    -0.2073091806504686
 33    -0.0767621738284346
 34     0.0000052935211416
 35     0.0000145976282037
 36    -0.0409208237654692
 37     0.0816028958273698
 38    -0.0005254642073295
 39     0.0000593225432954
 40    -0.1933198742936972
 41     0.0583003763878762
 42    -0.0001852088827444
 43    -0.0000988295901033
 44    -0.1903060093140492
 45    -0.0387719377196235
 46    -0.0002060738483460
 47    -0.0001221928460908
 48     0.1704333897150845
 49    -0.0049465511736439
 50    -0.0000540930555798
 51    -0.0000823097242710
 52     0.2108203516670976
 53    -0.0400832045224379
 54     0.0067741887834261
 55     0.0893629856298209
 56    -0.0984493808424754
 57     0.0503620760904237
 58    -0.0041744942420737
 59    -0.0461480390304491
 60     0.1009547517646371
 61    -0.0402899996651126
 62    -0.0075475664346600
 63    -0.0896434596585045
 64    -0.0986897972421902
 65     0.0504358286176719
 66     0.0037499089825315
 67     0.0459883016518740
 68     0.1013186155689495
 69    -0.0047310896193304
 70     0.0129229425003252
 71     0.0059212516742842
 72    -0.2325838535229346
 73     0.0197938567751889
 74    -0.0892910463509413
 75    -0.1097152371863927
 76     0.1058786609141784
 77    -0.0046479679542486
 78    -0.0129529306636050
 79    -0.0059894078958908
 80    -0.2325049626895812
 81     0.0201555349521715
 82     0.0900712365604248
 83     0.1106703332303587
 84     0.1071796305545221
 85     0.0124627471495135
 86     0.0086039197187511
 87     0.0039644254656365
 88     0.2273880647844315
 89    -0.0107783463049075
 90     0.0671503019449377
 91     0.0921149128389811
 92    -0.0750747479814572
 93     0.0124424254823585
 94    -0.0085597462713030
 95    -0.0037033997727637
 96     0.2273404643295587
 97    -0.0102770621213571
 98    -0.0664331455673034
 99    -0.0912865898263302
 100    -0.0763104800909785
 101    -0.0545333823796536
 102     0.0003031403833139
 103     0.0000813412256883
 104    -0.1393330061588667
 105    -0.1182792867976502
 106    -0.0000582768459645
 107    -0.0000425740008444
 108     0.2135058849136597
 109     0.1726075157934600
 110     0.0001780650330764
 111     0.0000488106048237
 112     0.0975054719264046
 113     0.1376910612653603
 114     0.0001163389910904
 115     0.0000845176779306
 116    -0.1190651974518457
 117    -0.2191005823220213
 118     0.0001019919216104
 119     0.0000233841820340
 120     0.1674318670216936
 121    -0.1766387029040564
 122     0.0000632306165882
 123     0.0000515726484732
 124    -0.0913130651201998
 125     0.0845730980033011
 126     0.0058205706719120
 127     0.0263166046885171
 128     0.0031624151502100
 129     0.0848408962662758
 130     0.0058208027353421
 131     0.0265414405688089
 132     0.0031992123789387
 133    -0.1161355962797724
 134    -0.0100099485235232
 135    -0.1416521506382160
 136    -0.0076867936392092
 137    -0.1159621225177820
 138    -0.0099855454622785
 139    -0.1429505049257270
 140    -0.0077531595441108
 141    -0.1083194072266393
 142    -0.0066687068619310
 143     0.0469130199306973
 144     0.0032057379230305
 145    -0.1085182645669299
 146    -0.0066884612692007
 147     0.0457846206394765
 148     0.0031678231847133
 149    -0.0000132067027394
 150    -0.0000067147206610
 151    -0.0000084354981980
 152    -0.0000000905547700
 153    -0.1224301421973907
 154    -0.0475490810495311
 155     0.0000039904501591
 156     0.0000095408878043
 157     0.0285573259228533
 158     0.0099875435569169
 159    -0.0071593108579326
 160    -0.0173011940086652
 161     0.0124283857119699
 162    -0.0002030443098008
 163    -0.0093323089921169
 164     0.0045898543426938
 165    -0.0026853753937317
 166     0.0026918608161911
 167    -0.0199665638150691
 168     0.0143281103213491
 169    -0.0000015975853546
 170    -0.0000059409994432
 171    -0.0001932293624108
 172    -0.0093158302038536
 173    -0.0000001451196023
 174     0.0054124801897925
 175     0.0026985713055828
 176     0.0100052794729963
 177    -0.0071646890604338
 178     0.0173287281391020
 179    -0.0124496206422923
 180    -0.0002056532983424
 181    -0.0093492009658875
 182    -0.0045987053926958
 183    -0.0026902394998268
 184     0.0026961528480342
 Sym= 34A
 Ene= -0.141823
 Spin= Alpha
 Occup= 2.000000
  1    -0.0015689789471147
  2     0.0004378444361007
  3    -0.0012192403831809
  4    -0.0008253564978009
  5    -0.0012477081954998
  6    -0.0009313891289437
  7     0.0000650970360889
  8    -0.0004083419836816
  9    -0.0006364525576276
 10     0.0006231905935271
 11     0.0001616319755787
 12     0.0010230564985661
 13    -0.0010916866827756
 14    -0.0004417118019521
 15    -0.0003101722413171
 16     0.0005522150504691
 17     0.0000505101058011
 18    -0.0001981151238806
 19     0.0014925898586473
 20     0.0000788116608750
 21    -0.0020281197432331
 22    -0.0007441186389160
 23     0.0016915322605066
 24     0.0012581816996654
 25    -0.0000927267174043
 26     0.0002460577664012
 27     0.0008385554996349
 28     0.0044018431780352
 29     0.0000739731646249
 30    -0.0175595567209331
 31    -0.0002938106969484
 32     0.0000525720617639
 33     0.0000196285506803
 34    -0.0028333991205682
 35     0.0005881524845931
 36     0.0000078370328866
 37    -0.0000074582941708
 38     0.1742257849984929
 39    -0.0787866169632519
 40     0.0000099545800912
 41    -0.0000113082404922
 42    -0.0158145800611471
 43    -0.0434970837143194
 44     0.0000635398875440
 45     0.0000055858032418
 46     0.0894056666727532
 47    -0.0109495292102405
 48    -0.0000430724359051
 49    -0.0000042374937164
 50    -0.2090584173795609
 51     0.1813079840969270
 52    -0.0000651646547130
 53     0.0187405408919166
 54     0.1247379831734111
 55     0.0135400380334315
 56     0.0956824001517849
 57    -0.0217212084942179
 58     0.0625170948682819
 59    -0.0323075198239371
 60    -0.1114634659085284
 61    -0.0187283416722467
 62     0.1246785561671873
 63     0.0135847644108505
 64    -0.0956908172354129
 65     0.0216969079024558
 66     0.0625447461378794
 67    -0.0323476762787879
 68     0.1114084849438498
 69     0.0250242744702970
 70    -0.0301225823787038
 71     0.0688196658578850
 72     0.0311502471834770
 73     0.0003071099913121
 74    -0.2052889418040694
 75     0.2089545240899725
 76    -0.0814802337532259
 77    -0.0250139949508232
 78    -0.0300942193241191
 79     0.0688539795702660
 80    -0.0310536069102479
 81    -0.0003288377293841
 82    -0.2052998316368527
 83     0.2089291752152430
 84     0.0814346583957487
 85    -0.0139180797259909
 86     0.0304414821018935
 87    -0.0930684362714878
 88    -0.0212500097700395
 89    -0.0271025386433786
 90    -0.2462172324782694
 91     0.2277257204344370
 92     0.0695384014830126
 93     0.0139095657744257
 94     0.0304564950340344
 95    -0.0930754747848407
 96     0.0211422423146985
 97     0.0271082971670190
 98    -0.2461721394794789
 99     0.2277033641060043
 100    -0.0696633493378491
 101     0.0000100563546328
 102    -0.1197105492348741
 103     0.0458261010155928
 104     0.0000126032450707
 105    -0.0000024912220713
 106    -0.3282161411784339
 107     0.2677173561673468
 108    -0.0001064761831222
 109    -0.0000247620547310
 110    -0.0801720005796734
 111     0.0210521717441812
 112    -0.0000086231399942
 113    -0.0000218970266168
 114    -0.1765216008278302
 115     0.1669240134594441
 116    -0.0000523698443377
 117     0.0000401995854111
 118    -0.0503092260920989
 119     0.0126055727086604
 120    -0.0000412186682081
 121    -0.0000011956927990
 122    -0.0981957861916966
 123     0.0936948497960644
 124    -0.0000541105978834
 125    -0.0146106788695472
 126    -0.0021858356207914
 127    -0.0742242302416612
 128    -0.0094677570400275
 129     0.0145643545567415
 130     0.0021815861070029
 131     0.0742349477104956
 132     0.0094663075284587
 133     0.0861654086796976
 134     0.0122046271740380
 135     0.0600593762219999
 136     0.0052074534269229
 137    -0.0861311283077980
 138    -0.0121989491406952
 139    -0.0600569586019689
 140    -0.0052052852811054
 141    -0.0767890161654878
 142    -0.0085452219903981
 143     0.0418563896030085
 144     0.0010474995463945
 145     0.0768228869081187
 146     0.0085464907058876
 147    -0.0418861278580056
 148    -0.0010473414363610
 149    -0.0282358789284899
 150     0.0004085736293996
 151     0.0296034611854931
 152    -0.0004284102335541
 153    -0.0000367332750541
 154    -0.0000111113225713
 155    -0.0049761721239502
 156     0.0047991734224960
 157     0.0000055767331904
 158    -0.0022708248060798
 159     0.0012397227184675
 160     0.0050040774138460
 161    -0.0009960666861849
 162     0.0036848812532153
 163     0.0028201400563920
 164    -0.0005160783444559
 165    -0.0000556833198993
 166    -0.0019345020308639
 167    -0.0038923150821095
 168     0.0010657626236543
 169    -0.0016582848442569
 170    -0.0017833863533753
 171    -0.0026076392086205
 172    -0.0020061779994605
 173     0.0009457651569608
 174     0.0003006232777172
 175     0.0013787069454412
 176     0.0027039035325639
 177     0.0018271252481911
 178     0.0002864466515483
 179    -0.0015617141805346
 180    -0.0010720265913649
 181    -0.0008197678830402
 182     0.0005093334360257
 183    -0.0011534182631164
 184     0.0005606558545322
 Sym= 35A
 Ene= -0.133432
 Spin= Alpha
 Occup= 2.000000
  1     0.0036905292413561
  2    -0.0036839914904027
  3    -0.0016307674077335
  4     0.0022868336305921
  5     0.0002745750686486
  6     0.0001930643143213
  7    -0.0007444035414476
  8     0.0013957956447564
  9     0.0001056509076886
 10    -0.0075627138099891
 11    -0.0020755449758620
 12    -0.0021569719629547
 13     0.0023274326797259
 14     0.0050850108853076
 15     0.0034643840045975
 16    -0.0008510943773764
 17    -0.0005905137690490
 18     0.0020186739556452
 19    -0.0023804413221991
 20    -0.0027945014168783
 21     0.0078107617115132
 22     0.0008454323731537
 23    -0.0054170878188330
 24    -0.0036370704872855
 25     0.0008872033613882
 26     0.0003310503615213
 27    -0.0021158548732451
 28    -0.0425776750790953
 29    -0.0009667447817560
 30     0.0271688457636603
 31     0.0006215512763651
 32     0.0001412306204059
 33     0.0000393313061709
 34     0.0036466183616053
 35    -0.0058229828677645
 36     0.0000242360983712
 37     0.0000018527919233
 38     0.0031704049019442
 39     0.0134254889865705
 40     0.0000886542636540
 41     0.0000359681062368
 42     0.0942061915522890
 43    -0.1252337054363867
 44     0.0000133150731352
 45    -0.0000365006775686
 46    -0.1881034413779961
 47     0.2714949123391817
 48    -0.0000406345201737
 49    -0.0000230447311562
 50    -0.0032781443091973
 51    -0.0005903426170511
 52    -0.0000157408860329
 53    -0.0237279454257017
 54     0.0643207957649351
 55    -0.0050769229196240
 56     0.0291359508675822
 57    -0.0066192165271370
 58     0.0874346901461744
 59     0.1128837420303823
 60    -0.0253679608055603
 61     0.0237486960615069
 62     0.0642861100828863
 63    -0.0050496359635076
 64    -0.0292752629946904
 65     0.0065887291674378
 66     0.0874243249005810
 67     0.1128528587349479
 68     0.0254414372494749
 69     0.0112689500916681
 70     0.1770743112501024
 71    -0.2187503681359212
 72     0.0444095565133344
 73     0.0049621492796414
 74    -0.0543775045499859
 75     0.0266373568740154
 76     0.0100815973243970
 77    -0.0112298468221940
 78     0.1770063882713649
 79    -0.2187626409594157
 80    -0.0444283410525507
 81    -0.0049668763360542
 82    -0.0543448898477802
 83     0.0266460938721571
 84    -0.0099608106480252
 85     0.0060125800774460
 86    -0.1756722621398345
 87     0.2238172590484696
 88    -0.0208605890518533
 89     0.0053413572832305
 90    -0.1018954934626352
 91     0.0398834924491766
 92    -0.0095391384297865
 93    -0.0060581087427016
 94    -0.1756832490975226
 95     0.2237939632697723
 96     0.0208977819022807
 97    -0.0053308600533083
 98    -0.1018882053574769
 99     0.0398697281356434
 100     0.0093920102326238
 101     0.0000208484208056
 102     0.1651065428722243
 103    -0.2424996002488924
 104    -0.0000677356007028
 105    -0.0000365881868507
 106    -0.1081857304879676
 107     0.1094694448517250
 108    -0.0000042666741101
 109    -0.0000406229621103
 110     0.0948957741854669
 111    -0.1479565865186688
 112     0.0000123249849904
 113     0.0000498032071433
 114    -0.0752756402653725
 115     0.0655928195776057
 116    -0.0000358725462994
 117     0.0000806623507778
 118     0.0635684493170694
 119    -0.0996799475562228
 120    -0.0001067325434513
 121    -0.0000926547620044
 122    -0.0457831865442355
 123     0.0394421421727840
 124    -0.0001120999891790
 125    -0.0447051459228004
 126    -0.0004978238925616
 127     0.0804713121019860
 128     0.0062211696550707
 129     0.0447505452355223
 130     0.0004999460381773
 131    -0.0804097723096206
 132    -0.0062161840767320
 133    -0.2421976183022756
 134    -0.0235035140811171
 135    -0.0056247201037129
 136    -0.0021205239509407
 137     0.2422424860702811
 138     0.0235068100681813
 139     0.0055409541023313
 140     0.0021144087994731
 141     0.2698148840037530
 142     0.0279889071616241
 143    -0.0253907518987478
 144    -0.0013934007667112
 145    -0.2697965978041099
 146    -0.0279870703600586
 147     0.0253435845706011
 148     0.0013921316273426
 149    -0.0142820366313483
 150     0.0002763037788574
 151     0.0165763072358066
 152    -0.0003203889180747
 153    -0.0001433944622338
 154    -0.0000512248601308
 155    -0.0026333133677422
 156     0.0022161460245812
 157     0.0000198725517591
 158    -0.0015404672540931
 159     0.0007693636479984
 160     0.0032798522329284
 161    -0.0006670080219221
 162     0.0024255086083511
 163     0.0016978470401950
 164    -0.0002908106634409
 165     0.0000196911431971
 166    -0.0010469902735557
 167    -0.0024655686469968
 168     0.0006971061387776
 169    -0.0012156392373002
 170    -0.0013457918173690
 171    -0.0016065592053642
 172    -0.0011544015473175
 173     0.0005515306427226
 174     0.0001875998016702
 175     0.0006980917702243
 176     0.0019527745340311
 177     0.0012718543280943
 178     0.0003315054269859
 179    -0.0011608117820709
 180    -0.0008009935317494
 181    -0.0005915237518766
 182     0.0002510897475564
 183    -0.0006414871557414
 184     0.0003618946390246
 Sym= 36A
 Ene= -0.131774
 Spin= Alpha
 Occup= 2.000000
  1    -0.0671650040063689
  2    -0.0595433381321406
  3    -0.1164880946930834
  4    -0.1029760437098770
  5     0.0219013258054245
  6    -0.0544241955246392
  7    -0.0199679917458352
  8    -0.0116557601240975
  9    -0.0121210654432923
 10     0.1335972913100250
 11     0.1182844616394191
 12    -0.0000061450804819
 13     0.0000171779940057
 14     0.0219843624603967
 15    -0.0540361885303439
 16    -0.0000004292879462
 17     0.0234033385872616
 18    -0.0120941716807964
 19    -0.0672055538654540
 20    -0.0595543294216394
 21     0.1165459634616526
 22     0.1030296634028149
 23     0.0219024269234411
 24    -0.0544481730968590
 25     0.0199749406445828
 26    -0.0116602249448550
 27    -0.0121260374313316
 28    -0.0002818426091004
 29    -0.0000899817863017
 30     0.0000175690019452
 31     0.0000044267051191
 32    -0.4382252540102397
 33    -0.1500623254430570
 34    -0.0000018544587905
 35     0.0000435262557886
 36    -0.0424779236294801
 37    -0.0313012724040424
 38     0.0000172193912616
 39    -0.0000113636770179
 40    -0.1617066477607086
 41    -0.0551870621186756
 42    -0.0000213375488727
 43    -0.0000550612307368
 44    -0.0235167635832156
 45     0.0502289039585523
 46    -0.0000138218830653
 47     0.0001229663431075
 48     0.1650944746301324
 49     0.0618908871028053
 50    -0.0000400281121302
 51     0.0000316657069641
 52     0.0055852149768787
 53    -0.0080071175891522
 54     0.0048729317715912
 55     0.0288268960063270
 56     0.1319446435764348
 57     0.0145299064148325
 58     0.0093721885577176
 59    -0.0438122024397448
 60    -0.1393126909358137
 61    -0.0079657071125983
 62    -0.0047403621671068
 63    -0.0287873131814168
 64     0.1319261282668507
 65     0.0145513409258947
 66    -0.0093972546158506
 67     0.0439147615498754
 68    -0.1392969633700167
 69    -0.0308196918727356
 70    -0.0343285169479923
 71     0.0263996907508286
 72    -0.0114598017308243
 73    -0.0011523718755935
 74     0.0278109887399014
 75     0.0217493533573625
 76    -0.1380290458857180
 77    -0.0308386374970528
 78     0.0345137846098256
 79    -0.0265227297963555
 80    -0.0115269786679096
 81    -0.0011770866646189
 82    -0.0279245487859065
 83    -0.0217256485760293
 84    -0.1380460407905435
 85     0.0352157604948537
 86     0.0146863986507783
 87    -0.0324732979305445
 88     0.0136989926921004
 89    -0.0056796180761269
 90     0.0018655807576173
 91    -0.0050567434240652
 92     0.1295554233868067
 93     0.0352134809246624
 94    -0.0148505535613299
 95     0.0325979267735479
 96     0.0137458417898667
 97    -0.0056889413206292
 98    -0.0020476776238035
 99     0.0051383772133106
 100     0.1295797553198572
 101    -0.0333300752367545
 102     0.0000008588029558
 103    -0.0001493440420309
 104     0.1235732446023775
 105     0.0705534777497868
 106    -0.0000519182741065
 107     0.0000595788037846
 108    -0.0634590200743692
 109     0.0450414736501708
 110     0.0000157836505203
 111    -0.0000619522482260
 112    -0.1184821726680065
 113    -0.1254110649969471
 114    -0.0000348748737131
 115     0.0000273455541804
 116     0.0225677998345147
 117    -0.2030814785313373
 118    -0.0000022223531185
 119    -0.0000921230556367
 120     0.2916257838655693
 121     0.2026656925242425
 122    -0.0000403703953346
 123     0.0000370111564906
 124     0.2001342875836358
 125    -0.0476706788073949
 126    -0.0024177587295075
 127    -0.0881393466042740
 128    -0.0069348268595628
 129    -0.0476572040708848
 130    -0.0024169325044548
 131    -0.0882145272448439
 132    -0.0069382797225034
 133     0.0049505613408482
 134     0.0011249717646351
 135     0.0843319768066961
 136     0.0061157843592561
 137     0.0051216213460987
 138     0.0011401345424675
 139     0.0843447760062814
 140     0.0061157134068675
 141    -0.0160354497532318
 142    -0.0006356846287483
 143     0.0545926381122350
 144     0.0020227296625917
 145    -0.0162368088643624
 146    -0.0006573524733295
 147     0.0546511766990623
 148     0.0020262783031488
 149    -0.0000320672694446
 150     0.0000300334303583
 151    -0.0000374880446042
 152     0.0000127116411349
 153     0.2893103656150286
 154     0.1053060637014354
 155    -0.0000070805240893
 156    -0.0000187499359993
 157    -0.0382263590882871
 158    -0.0420138904691657
 159     0.0367642160505740
 160     0.0728054837739457
 161    -0.0637719843864090
 162    -0.0125170753327374
 163     0.0351996668876927
 164    -0.0134496233917802
 165     0.0078584032400619
 166    -0.0082417026789983
 167     0.0839883912655116
 168    -0.0735319555676748
 169     0.0000172682102656
 170     0.0000539233873507
 171    -0.0125739906741793
 172     0.0351522330791063
 173    -0.0000012582796749
 174    -0.0158425156778348
 175    -0.0082659705503813
 176    -0.0421326691663765
 177     0.0367941513137295
 178    -0.0729767126825954
 179     0.0639319585909707
 180    -0.0125210945798514
 181     0.0352808934751006
 182     0.0134746769528430
 183     0.0078741382536200
 184    -0.0082592837619496
 Sym= 37A
 Ene= -0.126590
 Spin= Alpha
 Occup= 2.000000
  1     0.0689679164874215
  2     0.0720102730527900
  3     0.1196654842723699
  4     0.1243814416449487
  5    -0.0413230253028911
  6     0.0578364654297911
  7     0.0191357128635301
  8     0.0111665232626013
  9     0.0108402528901910
 10    -0.1371689335767632
 11    -0.1428435958872191
 12     0.0000278738114659
 13    -0.0000506851674751
 14    -0.0412509856909140
 15     0.0574464790742336
 16     0.0000080371575385
 17    -0.0224464226072884
 18     0.0108374342346806
 19     0.0690690264985353
 20     0.0720109913621134
 21    -0.1197845150203614
 22    -0.1244845544028507
 23    -0.0412911949005167
 24     0.0578931203675522
 25    -0.0191438230850732
 26     0.0111804882078520
 27     0.0108563314088261
 28     0.0002011253977992
 29     0.0000936038982964
 30    -0.0002074290213638
 31    -0.0000021505629892
 32     0.3470221520249061
 33     0.1156794130266143
 34    -0.0000215597704425
 35    -0.0000670792647510
 36     0.0144195845772793
 37     0.0301271326801783
 38     0.0000373107794326
 39    -0.0000252243851185
 40    -0.1463889259902165
 41    -0.0210746583072839
 42    -0.0003320866499196
 43    -0.0001806131308767
 44    -0.1245381087201105
 45     0.0046216184384849
 46     0.0004014782542981
 47     0.0003751344584014
 48     0.1268209685642964
 49     0.0180740045420453
 50    -0.0000516171918914
 51     0.0000865538206827
 52     0.1189246607358402
 53    -0.0217144599305145
 54     0.0117452442803621
 55     0.0465061842441436
 56     0.0042233783255825
 57     0.0261344449387427
 58     0.0091222730489722
 59    -0.0437305499697286
 60    -0.0102184511318301
 61    -0.0216387550094759
 62    -0.0119784052319378
 63    -0.0465586410301319
 64     0.0040035035716776
 65     0.0261513725535188
 66    -0.0096264595785332
 67     0.0439526390132188
 68    -0.0100071920606646
 69     0.0100172046322917
 70     0.0037244817712758
 71     0.0092447355549872
 72    -0.1470430794309238
 73     0.0186770059837939
 74    -0.0120707433846507
 75    -0.0196717616464670
 76    -0.0749363520211242
 77     0.0099797175996420
 78    -0.0031212378426072
 79    -0.0088547160712036
 80    -0.1471059210399352
 81     0.0185764419865093
 82     0.0120496086189986
 83     0.0197042725302723
 84    -0.0747768541570291
 85    -0.0038301755577178
 86    -0.0046885766723161
 87     0.0174615725658161
 88     0.1469979661147768
 89    -0.0243019101443140
 90     0.0216475306253790
 91     0.0262441274162607
 92     0.0730785704047999
 93    -0.0038029666289693
 94     0.0044310918277068
 95    -0.0175618593416657
 96     0.1470185621684192
 97    -0.0242503117340504
 98    -0.0217087953245503
 99    -0.0263948711241890
 100     0.0729806956420912
 101     0.0159727913065705
 102    -0.0003658547709760
 103    -0.0003131345256259
 104    -0.1742520936034626
 105     0.0377541129351672
 106     0.0001349567319026
 107     0.0000458376931759
 108     0.0585435797848396
 109     0.0487714613341248
 110    -0.0004798116329574
 111    -0.0003681252862307
 112     0.1621704259556367
 113    -0.0674968813702406
 114     0.0001498185280149
 115    -0.0000131742892504
 116    -0.0653273406803811
 117     0.0930594537325824
 118    -0.0003536254632712
 119    -0.0002150751206361
 120    -0.1995914168664771
 121     0.1777249235359742
 122     0.0000704924311961
 123     0.0000261543428456
 124     0.2362413152205393
 125     0.0168818403292823
 126     0.0029452543295575
 127    -0.0234009851799067
 128    -0.0021406691114926
 129     0.0170647511962125
 130     0.0029741866546989
 131    -0.0235090525465551
 132    -0.0021452467075807
 133    -0.0712486966500157
 134    -0.0062240900873593
 135     0.0267708671979097
 136     0.0019670485687572
 137    -0.0711735626081015
 138    -0.0062236400464261
 139     0.0266377108217843
 140     0.0019470508029139
 141    -0.0693440919659902
 142    -0.0060555689251920
 143     0.0481299455913007
 144     0.0020740314854942
 145    -0.0694587056180914
 146    -0.0060645286965291
 147     0.0482411434807636
 148     0.0020862796646734
 149    -0.0000530115425477
 150     0.0000556006204007
 151    -0.0001372219257365
 152     0.0000187853628463
 153     0.3766263780958745
 154     0.1340062519952366
 155    -0.0000050395482023
 156    -0.0000312837732421
 157    -0.0305135125793315
 158    -0.0703026776318495
 159     0.0713936894605158
 160     0.1218517143570137
 161    -0.1237806826782986
 162    -0.0383680237432275
 163     0.0601066134751023
 164    -0.0207014480501702
 165     0.0120942305195791
 166    -0.0120387943987385
 167     0.1405591192517492
 168    -0.1427405135802144
 169     0.0000441770078439
 170     0.0001431733741637
 171    -0.0384658042944253
 172     0.0600438471439228
 173    -0.0000064750503069
 174    -0.0243952036218863
 175    -0.0120797181798192
 176    -0.0705512914973283
 177     0.0714407781137227
 178    -0.1221939857596109
 179     0.1241492662691212
 180    -0.0384122190800458
 181     0.0602636836125915
 182     0.0207386431754418
 183     0.0121229505632281
 184    -0.0120664450211167
 Sym= 38A
 Ene= -0.125848
 Spin= Alpha
 Occup= 2.000000
  1    -0.0167420057679228
  2    -0.0072564872750456
  3    -0.0332129265262430
  4    -0.0077221094643689
  5    -0.0241999989030453
  6    -0.0155517624477739
  7    -0.0026480965626202
  8    -0.0008083816374452
  9    -0.0079194743387965
 10    -0.0219184824469155
 11    -0.0059299570211478
 12     0.0143488117638005
 13    -0.0163115708198022
 14     0.0145061286867736
 15     0.0092194244251818
 16     0.0044310380440185
 17    -0.0015915195029420
 18     0.0047363688434123
 19     0.0216024020314463
 20    -0.0143513877380439
 21    -0.0043015173513836
 22    -0.0127671047278453
 23     0.0096947158133492
 24     0.0060841761324186
 25     0.0015908991399772
 26     0.0049347806419971
 27     0.0031430935269855
 28    -0.0995012009858163
 29    -0.0030353424545902
 30    -0.1334134074119580
 31    -0.0041054996477651
 32    -0.0003278532411480
 33    -0.0001391580110989
 34    -0.0166254042551759
 35    -0.0123801796181123
 36     0.0000177694221326
 37    -0.0000519774139499
 38     0.0454627750147810
 39    -0.0093970428414204
 40     0.0001651436778264
 41     0.0000257014330996
 42    -0.2234477877414743
 43    -0.1219083733043256
 44     0.0002084925733438
 45    -0.0000109220157550
 46     0.3067059878238241
 47     0.2562240715257654
 48    -0.0001556328726950
 49    -0.0000215524411516
 50    -0.0178070077134805
 51     0.0356146592939115
 52    -0.0001750352732042
 53    -0.0263289287995499
 54    -0.0941544750437437
 55    -0.0284275098484239
 56     0.0795061477906034
 57    -0.0022967258323011
 58    -0.1876623057360148
 59     0.0754892233893833
 60    -0.0724332838072754
 61     0.0263734549072699
 62    -0.0941103448385009
 63    -0.0283169056319569
 64    -0.0794347984722923
 65     0.0022287699553632
 66    -0.1875612013251224
 67     0.0753868681167568
 68     0.0724811831723993
 69     0.0121399431370908
 70     0.2104793734891008
 71     0.1508059806449601
 72     0.0172533684837768
 73     0.0331709001473881
 74     0.0183414920261853
 75     0.0044766332457283
 76    -0.0622205100056696
 77    -0.0121350666716603
 78     0.2104765787119853
 79     0.1508047621073288
 80    -0.0168495226700451
 81    -0.0332289665249219
 82     0.0182906422959012
 83     0.0044406117286875
 84     0.0624186522904818
 85    -0.0056618118151455
 86    -0.0566323299720680
 87    -0.0313099707257197
 88    -0.0098652838300362
 89    -0.0192670459829743
 90     0.0088178416785683
 91    -0.0806282734522562
 92     0.0412597093200616
 93     0.0056402557768169
 94    -0.0566545846519748
 95    -0.0312881857973517
 96     0.0095086822569518
 97     0.0193436849063251
 98     0.0088833979978921
 99    -0.0805620455241083
 100    -0.0414225315612229
 101    -0.0000054642611032
 102    -0.2807554483111405
 103    -0.2177723379168466
 104     0.0001060497568636
 105    -0.0000533231053175
 106     0.1253067914902271
 107     0.0092723647171961
 108    -0.0000835538381267
 109    -0.0000891165740280
 110    -0.3277477714907287
 111    -0.2449387551889849
 112    -0.0002234716348050
 113     0.0000988541886436
 114     0.0929714829632222
 115     0.0045200613747293
 116     0.0001241516917557
 117    -0.0000669995902140
 118    -0.2498675014042190
 119    -0.1864705573103297
 120     0.0001404817504766
 121    -0.0002612791273951
 122     0.0607486921035648
 123     0.0026353686821857
 124    -0.0003386607836379
 125    -0.0699937920995722
 126    -0.0118676121412033
 127     0.0380761982211509
 128     0.0021915713610323
 129     0.0699319944491608
 130     0.0118545949536107
 131    -0.0380426996688525
 132    -0.0021863311107612
 133    -0.0011983801187008
 134     0.0027481205300722
 135     0.0527115775724516
 136     0.0073917746797627
 137     0.0013814584495453
 138    -0.0027272159951045
 139    -0.0527799432104487
 140    -0.0073955063947177
 141     0.0110708357102647
 142     0.0006046223309310
 143    -0.0375852994320843
 144    -0.0042294475481061
 145    -0.0109221604642133
 146    -0.0005918774138309
 147     0.0374594900812861
 148     0.0042235517259541
 149    -0.0011686961023513
 150     0.0000322752664112
 151    -0.0267854347080650
 152     0.0006889547733242
 153    -0.0005603512636724
 154    -0.0001971849100102
 155     0.0036453064918148
 156     0.0000843477106072
 157     0.0000439344527850
 158     0.0037938311236968
 159     0.0006774849892382
 160    -0.0036228926435387
 161     0.0021851517750937
 162    -0.0030612511594825
 163    -0.0021557132452137
 164     0.0000902004221344
 165    -0.0006103050823810
 166     0.0011106548132790
 167    -0.0004716179538725
 168     0.0002939202429615
 169     0.0027155626089604
 170     0.0031130750229357
 171    -0.0001156155546494
 172    -0.0002007218201173
 173    -0.0009087441380692
 174     0.0000569127186365
 175     0.0000667161732225
 176    -0.0035187115674046
 177    -0.0006582445931502
 178    -0.0036017831821027
 179     0.0017361391694002
 180     0.0033806886650580
 181     0.0020808771886010
 182     0.0000710370695666
 183     0.0005334756844055
 184    -0.0011239653533682
 Sym= 39A
 Ene= -0.118977
 Spin= Alpha
 Occup= 2.000000
  1     0.0275977991301855
  2     0.0613651458209547
  3     0.0479759753106298
  4     0.1054492487398754
  5    -0.0666373975438202
  6     0.0382481404101005
  7     0.0108807772435401
  8     0.0063399519670938
  9     0.0028452527363419
 10    -0.0547827665535446
 11    -0.1210655172556752
 12     0.0000065430623208
 13    -0.0000498198094138
 14    -0.0661949740347535
 15     0.0379397808551218
 16     0.0000030494433451
 17    -0.0127970177642791
 18     0.0028378268849326
 19     0.0276252719857178
 20     0.0613586569327896
 21    -0.0480104419433127
 22    -0.1055379710417729
 23    -0.0666907797454706
 24     0.0382693768374138
 25    -0.0108836288509042
 26     0.0063451294338643
 27     0.0028429661921613
 28     0.0002467361360204
 29     0.0000124994564898
 30    -0.0000126019758897
 31     0.0000104958714085
 32     0.0795164169456240
 33     0.0225514513639205
 34     0.0000009148429096
 35    -0.0000184276609543
 36    -0.0147638880117917
 37    -0.0003113183125467
 38    -0.0000486617203984
 39     0.0000137915039762
 40    -0.2362141593441259
 41    -0.0427079872650610
 42     0.0000104577940032
 43     0.0000118975115576
 44     0.0380766420565416
 45     0.0602579163327503
 46    -0.0000134723534329
 47    -0.0000339231069546
 48     0.2350760112967733
 49     0.0627912818702462
 50     0.0000293895400823
 51    -0.0000351011051617
 52    -0.0691329915894396
 53    -0.0022193849800477
 54     0.0147166463311442
 55     0.0405996895271039
 56     0.1707733246157145
 57     0.0162736893168347
 58     0.0162700810596414
 59    -0.0326998476979991
 60    -0.1810390061761280
 61    -0.0022067053840293
 62    -0.0146408350640161
 63    -0.0405751139373465
 64     0.1708445830747080
 65     0.0162818329694915
 66    -0.0163271009322666
 67     0.0327147717704732
 68    -0.1811008941835315
 69    -0.0096803683122229
 70    -0.0398103154769117
 71     0.0182051202145291
 72    -0.1208445688068849
 73    -0.0227842897346976
 74     0.0418878203049149
 75     0.0337280066070414
 76    -0.1251147156450677
 77    -0.0096787290290591
 78     0.0397739350104150
 79    -0.0182166306183793
 80    -0.1208493751544685
 81    -0.0227810474147933
 82    -0.0418491687047171
 83    -0.0338017463978816
 84    -0.1251377269703063
 85     0.0201093555543127
 86    -0.0086685379753587
 87    -0.0150003694635291
 88     0.1253935685440159
 89     0.0186796532932075
 90    -0.0157585522608586
 91    -0.0326674984009700
 92     0.1185594484392348
 93     0.0201220105561610
 94     0.0086068343622405
 95     0.0149591417699457
 96     0.1253913173096202
 97     0.0186627263999148
 98     0.0157349211142524
 99     0.0326842935144493
 100     0.1185721574091610
 101     0.0010580030627204
 102     0.0000246898758714
 103     0.0000013403087195
 104    -0.0680020569706545
 105     0.0326408002192213
 106    -0.0000032445094571
 107    -0.0000136800179715
 108    -0.1748838612708846
 109     0.0578269558855997
 110     0.0000053067106405
 111     0.0000401646239197
 112     0.0655340319126581
 113    -0.0866606486732298
 114    -0.0001077168980467
 115     0.0000490250906724
 116     0.1378494412441672
 117    -0.0226903825767597
 118     0.0000035802382610
 119     0.0000719653412162
 120    -0.0154553597078697
 121     0.0146844626254127
 122    -0.0000752419129186
 123     0.0000108872542376
 124    -0.0794210272163903
 125    -0.0651091695270646
 126    -0.0025435824931132
 127    -0.1046721795760539
 128    -0.0094527714943375
 129    -0.0651356901554225
 130    -0.0025474460721212
 131    -0.1047132341120319
 132    -0.0094562477668694
 133    -0.0511833226611876
 134    -0.0026479717585204
 135     0.0828883410541498
 136     0.0071853875563967
 137    -0.0511569234453450
 138    -0.0026441866926556
 139     0.0829067538688878
 140     0.0071874401254013
 141    -0.0656168612103292
 142    -0.0059018441516293
 143     0.0399917736974771
 144     0.0023712686200453
 145    -0.0656488977902289
 146    -0.0059039475470974
 147     0.0400101807634220
 148     0.0023709554663865
 149     0.0000316825061010
 150    -0.0000758367176491
 151     0.0002028812115165
 152     0.0000193413455777
 153    -0.2181338736011009
 154    -0.0699722022451176
 155     0.0000042567895912
 156     0.0000337334284073
 157    -0.0207395665964832
 158     0.0681896532503832
 159    -0.1298390818167819
 160    -0.1182452534308253
 161     0.2247763839356409
 162     0.1324332235751467
 163    -0.0853748250516237
 164     0.0249514658588877
 165    -0.0145881493863603
 166     0.0082272044606399
 167    -0.1363763495054411
 168     0.2592763104711183
 169    -0.0000790958970934
 170    -0.0004897020074070
 171     0.1325748868031725
 172    -0.0853374030156106
 173     0.0000241859005559
 174     0.0294867859356065
 175     0.0082650107477033
 176     0.0685294068738872
 177    -0.1297979401833072
 178     0.1186753931171625
 179    -0.2256865708357919
 180     0.1328779195760612
 181    -0.0856378306096292
 182    -0.0249861226092648
 183    -0.0146359835024930
 184     0.0082447945892536
 Sym= 40A
 Ene= -0.114513
 Spin= Alpha
 Occup= 2.000000
  1     0.0680432980436307
  2    -0.1933896823966146
  3     0.1184570794822949
  4    -0.3287910943019293
  5     0.3378048916640111
  6    -0.0968996547713633
  7    -0.0285475240681488
  8    -0.0165776192535527
  9     0.0135825644140190
 10    -0.1348029255209608
 11     0.3781633607842866
 12     0.0000310663795978
 13     0.0003182405925981
 14     0.3330628472102905
 15    -0.0961342432111739
 16    -0.0000141117802639
 17     0.0337195031533497
 18     0.0135481569996675
 19     0.0681597737661581
 20    -0.1932406540129469
 21    -0.1185964496803660
 22     0.3291709141475656
 23     0.3382823381458500
 24    -0.0969566892583327
 25     0.0285471534637117
 26    -0.0165937615626114
 27     0.0135903711541044
 28     0.0008416800628820
 29     0.0006464806897542
 30    -0.0000986694561703
 31    -0.0000617840537364
 32     0.1387789341854473
 33     0.0882947361212393
 34     0.0000049161205421
 35    -0.0000927169294764
 36     0.0336278192642828
 37     0.0095810752063783
 38     0.0000115413248991
 39     0.0000666864492900
 40    -0.0410507647092295
 41    -0.0075726478692056
 42    -0.0000423910001934
 43    -0.0000796813355749
 44    -0.0261893744446319
 45     0.0030489742013677
 46     0.0000394943423952
 47     0.0000452848184028
 48     0.0348828250163428
 49     0.0054315268637171
 50    -0.0000058336664544
 51    -0.0000252521157696
 52     0.0226003321155958
 53    -0.0045710770211284
 54     0.0052895508335470
 55     0.0111804965547820
 56     0.0058515367215333
 57     0.0060467690637102
 58     0.0045654746512164
 59    -0.0099256325278254
 60    -0.0080022594867968
 61    -0.0045684562748906
 62    -0.0052973421844948
 63    -0.0112936685535294
 64     0.0058570143312474
 65     0.0060531739247444
 66    -0.0046237093139617
 67     0.0100667710624035
 68    -0.0079922930254406
 69     0.0072768554357346
 70     0.0029247305726485
 71     0.0030590497071479
 72    -0.0471436827989311
 73     0.0009104179283230
 74     0.0002879513871414
 75    -0.0015517891212844
 76    -0.0269794529197869
 77     0.0072668632708707
 78    -0.0028919070721511
 79    -0.0030537781198127
 80    -0.0471185458131033
 81     0.0008918496942603
 82    -0.0002567949752575
 83     0.0015689902215588
 84    -0.0269762300283706
 85    -0.0053606714350254
 86    -0.0030328277406625
 87     0.0104043194868273
 88     0.0473258437269569
 89    -0.0029344830918244
 90     0.0018755370897474
 91     0.0012584616086457
 92     0.0265098983142198
 93    -0.0053164774075913
 94     0.0029020204450257
 95    -0.0104043844248121
 96     0.0472704202367763
 97    -0.0029273535080169
 98    -0.0019315753896675
 99    -0.0013150375771520
 100     0.0265136804977060
 101     0.0174395150705949
 102    -0.0000143531938626
 103    -0.0000657759409305
 104    -0.0783117955679021
 105     0.0084808180316056
 106     0.0000199945978121
 107     0.0000354501829364
 108    -0.0094129527309922
 109    -0.0040502399578908
 110    -0.0000900208360868
 111     0.0001034901805965
 112     0.0781015112390994
 113    -0.0209589663336366
 114     0.0000083348720529
 115     0.0000377450410729
 116     0.0051043077740899
 117     0.0955950142534202
 118    -0.0000777038429206
 119     0.0002259144876530
 120    -0.1451637847547587
 121     0.0303968163735122
 122     0.0000006768210022
 123     0.0000411346771530
 124     0.0285422858103966
 125     0.0012168431308432
 126     0.0007508921855249
 127    -0.0077833999888037
 128    -0.0009180302670508
 129     0.0013305223172189
 130     0.0007622478642139
 131    -0.0079102465897795
 132    -0.0009289273214093
 133    -0.0230635891651784
 134    -0.0019613790320378
 135     0.0129175290249637
 136     0.0009897631701959
 137    -0.0230128577550255
 138    -0.0019599024094972
 139     0.0128662248874671
 140     0.0009858261296004
 141    -0.0221502144802048
 142    -0.0021001240879210
 143     0.0133708350114282
 144     0.0008115629129567
 145    -0.0221974623183243
 146    -0.0020985051784485
 147     0.0134459026321028
 148     0.0008187186856857
 149    -0.0000843903744623
 150    -0.0000052338228722
 151    -0.0000003528724189
 152     0.0000485229225876
 153     0.0179625088488764
 154     0.0142802078142665
 155    -0.0000060894633854
 156     0.0000009864258239
 157    -0.0101845220773582
 158    -0.0072855682225690
 159    -0.0460557705442024
 160     0.0126618511076251
 161     0.0795411196855539
 162     0.0741423748772727
 163    -0.0247354937732609
 164     0.0070634761972506
 165    -0.0041357138149273
 166    -0.0020457215862486
 167     0.0145516284918666
 168     0.0918025589866730
 169     0.0000031642701131
 170    -0.0003552919350816
 171     0.0741835539537157
 172    -0.0247622267789708
 173     0.0000179890122425
 174     0.0083888106580362
 175    -0.0020462317187871
 176    -0.0073191540049562
 177    -0.0459034956518546
 178    -0.0127138358724673
 179    -0.0799894312089622
 180     0.0745824791625996
 181    -0.0248317182838345
 182    -0.0070678989323317
 183    -0.0041590784986813
 184    -0.0020482685788549
 Sym= 41A
 Ene= -0.112743
 Spin= Alpha
 Occup= 2.000000
  1     0.0278615525836059
  2    -0.0266712573057672
  3     0.0486179579719584
  4    -0.0448019720794348
  5     0.0600922134628973
  6    -0.0118729720324864
  7    -0.0040446103967085
  8    -0.0023399267613322
  9     0.0042454878262084
 10    -0.0551936243685488
 11     0.0516830117002612
 12     0.0000260761860114
 13     0.0000490391698792
 14     0.0588962295590386
 15    -0.0117874617403564
 16    -0.0000009251859855
 17     0.0047838502636219
 18     0.0042307058182884
 19     0.0279369025962868
 20    -0.0266415144153948
 21    -0.0486960137386986
 22     0.0448485559060508
 23     0.0602187982855282
 24    -0.0118680159826478
 25     0.0040426187942980
 26    -0.0023398517700101
 27     0.0042501056813363
 28     0.0004420680416193
 29     0.0002067236873565
 30    -0.0000794207798308
 31    -0.0000156379237458
 32     0.0409412365025886
 33     0.0244519091393080
 34     0.0000005366601963
 35    -0.0000369860748913
 36    -0.0010179195234389
 37    -0.0003273529708977
 38    -0.0000032459099573
 39     0.0000012429135096
 40    -0.1024576273665941
 41    -0.0057635634474688
 42    -0.0000135910647708
 43    -0.0000168508644555
 44     0.0759826106394923
 45     0.0322567199626476
 46     0.0000208794278987
 47     0.0000324812740013
 48     0.1063748419715575
 49     0.0272178717678147
 50     0.0000100176207806
 51     0.0000252818102170
 52    -0.0906060354984159
 53     0.0067795359905252
 54     0.0053471321260739
 55     0.0126453207385597
 56     0.0969944821078991
 57     0.0021208061324234
 58     0.0053293110705389
 59    -0.0011542984184701
 60    -0.1007032122891938
 61     0.0067900215575994
 62    -0.0053081962074210
 63    -0.0126309403787257
 64     0.0969985974678331
 65     0.0021381312289680
 66    -0.0054024888360913
 67     0.0011922770083863
 68    -0.1006995862955301
 69    -0.0033199950091889
 70    -0.0304808738521078
 71    -0.0002082911604669
 72    -0.0496268032528776
 73    -0.0169753187783952
 74     0.0248531378098432
 75     0.0216050056959775
 76    -0.0169830709496831
 77    -0.0033342883943599
 78     0.0305320233990709
 79     0.0002010666441286
 80    -0.0496231868079287
 81    -0.0169749564522613
 82    -0.0248900697234282
 83    -0.0216355932701006
 84    -0.0169347859326009
 85     0.0083913637226460
 86    -0.0155936570644361
 87    -0.0143828036747560
 88     0.0523909868457752
 89     0.0194542515274939
 90    -0.0132877810243080
 91    -0.0237778912346686
 92     0.0142510783454176
 93     0.0084201584674928
 94     0.0155046091064473
 95     0.0143903900588145
 96     0.0523720262494233
 97     0.0194315483788758
 98     0.0132877449780370
 99     0.0237764080285850
 100     0.0141934500968275
 101     0.0041618320934583
 102    -0.0000058461035226
 103    -0.0000534684406811
 104    -0.0318537725583027
 105    -0.0063178453586901
 106     0.0000238766436698
 107    -0.0000106080526459
 108    -0.0946969908282503
 109     0.0189697590706628
 110    -0.0000595662168590
 111     0.0000602811868662
 112     0.0324392910540890
 113     0.0029160886978688
 114    -0.0000650452180382
 115    -0.0000616971898335
 116     0.0848695724657920
 117     0.0062530265833021
 118    -0.0000593486771085
 119     0.0001244079439864
 120    -0.0251920224164980
 121    -0.0910571264038542
 122    -0.0000468436453783
 123    -0.0001561900748517
 124    -0.1519298537742231
 125    -0.0420017153184298
 126    -0.0021417586269411
 127    -0.0522016157729829
 128    -0.0045787850193469
 129    -0.0419974644080562
 130    -0.0021417261458843
 131    -0.0522295429146063
 132    -0.0045803171004094
 133    -0.0208265391007490
 134    -0.0005960607472961
 135     0.0204531844324173
 136     0.0024035797818689
 137    -0.0207761975447459
 138    -0.0005917702209049
 139     0.0204693313288276
 140     0.0024050703740547
 141    -0.0275699523669920
 142    -0.0026400622291428
 143    -0.0038460176803622
 144    -0.0001465333671774
 145    -0.0276207669793790
 146    -0.0026417933367206
 147    -0.0038757917926882
 148    -0.0001523850846103
 149     0.0006005670398812
 150    -0.0000464032306397
 151     0.0002539780057911
 152    -0.0003210611317801
 153    -0.1936877697859181
 154    -0.1156885314971708
 155     0.0000509264849317
 156     0.0000376719699042
 157     0.0165970892651230
 158     0.1108503186531881
 159     0.1553716075860702
 160    -0.1925605818459859
 161    -0.2677405135731905
 162    -0.3161088955310999
 163     0.0753996529342207
 164    -0.0232655709657379
 165     0.0136284767409387
 166     0.0186148755458749
 167    -0.2216525362300583
 168    -0.3092187176942640
 169    -0.0001550190413135
 170     0.0019633222641938
 171    -0.3163491196469364
 172     0.0756401345936068
 173    -0.0001011156435145
 174    -0.0277224094465331
 175     0.0186530082397306
 176     0.1115441776096223
 177     0.1542313517382111
 178     0.1934531114335151
 179     0.2697007557148134
 180    -0.3186285017712429
 181     0.0757893746958326
 182     0.0232721059809279
 183     0.0137492739260626
 184     0.0186411970561861
 Sym= 42A
 Ene= -0.110532
 Spin= Alpha
 Occup= 2.000000
  1     0.0383449863332201
  2    -0.4831020692588823
  3    -0.0804227092650690
  4     0.2429497925392325
  5     0.0845169538065874
  6    -0.0517930473903437
  7    -0.0253633522141759
  8     0.0200462100237118
  9    -0.0039404277157591
 10    -0.0939299351878100
 11    -0.0659262350633414
 12     0.0010162025730491
 13    -0.0102233008858411
 14    -0.1657917037326601
 15     0.1010211390498181
 16     0.0005754002207345
 17    -0.0247024170578571
 18     0.0074438184398653
 19     0.0401853413981358
 20    -0.4914632772722326
 21     0.0794268680670461
 22    -0.2496231842539489
 23     0.0790396420550581
 24    -0.0491423152898426
 25     0.0250559754698759
 26     0.0208614741424574
 27    -0.0038053059280767
 28    -0.2166245445694180
 29     0.0580598114300421
 30    -0.0024305410554640
 31     0.0010778108280024
 32     0.0002204213339133
 33    -0.0003968526884469
 34     0.0000698334908657
 35     0.0055595868475342
 36     0.0003296228523043
 37     0.0000187310773029
 38     0.0030612973665539
 39    -0.1529294109770154
 40    -0.0000023848151904
 41    -0.0000192948526834
 42     0.0037183445962439
 43     0.1375896107070324
 44    -0.0000452045513772
 45    -0.0000064222835739
 46    -0.0320708374689880
 47     0.0261687116264616
 48     0.0000047327077973
 49    -0.0000059645691620
 50    -0.0156622048689271
 51     0.0847619362666986
 52     0.0000367893837601
 53    -0.0075881321599985
 54     0.0144216265521113
 55     0.1302553575501061
 56     0.0205789303807479
 57     0.0021233976032708
 58     0.0123751820794562
 59    -0.1269237016949701
 60    -0.0057683435283067
 61     0.0075642318048877
 62     0.0143901044996825
 63     0.1302611020647692
 64    -0.0206227489612328
 65    -0.0021049798807696
 66     0.0123617109048923
 67    -0.1269223075478050
 68     0.0058126013377584
 69     0.0078897647158347
 70     0.0439407243017102
 71    -0.0165735182309063
 72     0.0178994859319178
 73    -0.0077418025726814
 74    -0.0444620040261083
 75    -0.0170077648278570
 76    -0.0053358791636834
 77    -0.0078700468764451
 78     0.0438302561522192
 79    -0.0166374410726232
 80    -0.0179609437189616
 81     0.0077534827080914
 82    -0.0444549227882207
 83    -0.0170030490966388
 84     0.0052797866313288
 85     0.0072989839106271
 86     0.0146337454661381
 87     0.0228438789299297
 88    -0.0151116748950859
 89     0.0030095960393148
 90     0.0548125243472894
 91     0.0499766745061384
 92     0.0064247655107886
 93    -0.0073186874517929
 94     0.0145538834431245
 95     0.0227474856445268
 96     0.0151781947842609
 97    -0.0030291801397519
 98     0.0548066937867219
 99     0.0499745055000804
 100    -0.0063807013651876
 101     0.0000152554365592
 102     0.0064229913660596
 103    -0.0051057809979195
 104    -0.0000648343349657
 105     0.0000129711926075
 106    -0.0041727611763571
 107    -0.0866331164954094
 108     0.0000164565274693
 109    -0.0000442275653823
 110    -0.0003176778845792
 111    -0.0898204226501869
 112     0.0000701832325493
 113    -0.0000233242906237
 114     0.0141368038725583
 115    -0.0809150202410525
 116     0.0000092781234833
 117     0.0000857057540002
 118    -0.0008799671314639
 119    -0.1106956334472313
 120    -0.0001560213785425
 121     0.0000415133906423
 122     0.0123900521113927
 123    -0.0660076345891580
 124     0.0000679545733780
 125     0.1127787470698825
 126     0.0121514256564171
 127    -0.1233075918541233
 128    -0.0117515975175772
 129    -0.1127762639490917
 130    -0.0121515481376432
 131     0.1233384194400115
 132     0.0117528455674865
 133    -0.0192614487184785
 134    -0.0050749428370857
 135    -0.0467862833713296
 136    -0.0022465659613379
 137     0.0192309372702690
 138     0.0050717321467562
 139     0.0468175543806895
 140     0.0022486518418720
 141     0.0204464407394078
 142     0.0035398279214848
 143     0.0673071043675131
 144     0.0063139513762584
 145    -0.0204712658059643
 146    -0.0035373465362640
 147    -0.0672857597958998
 148    -0.0063120062920390
 149     0.0604872106352253
 150     0.0016949132839156
 151    -0.0113699190261441
 152    -0.0004072700477234
 153     0.0000429973741746
 154    -0.0000021970306270
 155     0.0005661502690373
 156    -0.0023043726845867
 157    -0.0000436529750640
 158    -0.0037353178481519
 159    -0.0454406193876972
 160    -0.0215105898915671
 161    -0.0182662227002866
 162     0.0021974181303652
 163    -0.0094978148211456
 164     0.0034001439749957
 165     0.0019153432054955
 166     0.0017055323391963
 167     0.0251901318621797
 168    -0.0101077458616944
 169     0.0033478997101346
 170     0.0125610442644763
 171    -0.0027015187559356
 172     0.0141251233487571
 173    -0.0008870830997117
 174    -0.0030315640555397
 175    -0.0025599493938398
 176    -0.0107659054761680
 177    -0.0547703832276074
 178     0.0161895952102811
 179     0.0275558191900336
 180     0.0006987158061829
 181    -0.0047533581805698
 182    -0.0029430373906708
 183     0.0031970980595080
 184     0.0008525370839287
 Sym= 43A
 Ene= -0.110285
 Spin= Alpha
 Occup= 2.000000
  1    -0.0685340593550557
  2     0.3706384824670872
  3    -0.0285098177080033
  4    -0.2738843729474714
  5     0.1768987193765355
  6    -0.0846486868437001
  7    -0.0061878004996592
  8    -0.0320716906506384
  9    -0.0039932209886509
 10     0.0083424989160194
 11     0.0099992437476414
 12     0.0727980538498459
 13    -0.7186023383625729
 14     0.0369833080537321
 15    -0.0159119927800802
 16     0.0393445143712962
 17     0.0040629303575746
 18    -0.0004823009598637
 19     0.0589128140849119
 20    -0.1997696695620245
 21    -0.0449404655643555
 22    -0.1847056666832444
 23    -0.2132011942148253
 24     0.1004065989351678
 25    -0.0145061516685744
 26     0.0251599669039499
 27     0.0045505529404078
 28     0.0199160812415400
 29    -0.0123241306279981
 30    -0.1655249101307160
 31     0.0763634247342968
 32     0.0000334021791917
 33     0.0000999603466689
 34     0.0085180474861620
 35    -0.0014544471617582
 36    -0.0000264704414697
 37     0.0000076271529601
 38    -0.0148782806994349
 39    -0.0580207271094694
 40     0.0000049046807621
 41    -0.0000078980743028
 42     0.0180912070554495
 43     0.0565040490718881
 44    -0.0000252137292329
 45    -0.0000030966909818
 46    -0.0271123517054369
 47     0.0063129047081481
 48    -0.0000004448710152
 49    -0.0000025675722276
 50     0.0073084966185751
 51     0.0275933763068661
 52     0.0000198844863133
 53    -0.0022911084896200
 54     0.0000508511136749
 55     0.0515735625289546
 56     0.0044742230232223
 57     0.0014289181583523
 58     0.0118642605521925
 59    -0.0499630722977374
 60     0.0013322309510762
 61     0.0022810100015649
 62     0.0000393980412891
 63     0.0515763690127225
 64    -0.0044965051675239
 65    -0.0014213115767203
 66     0.0118558463074128
 67    -0.0499611942470742
 68    -0.0013102043300048
 69     0.0037563858540580
 70     0.0191042276039731
 71    -0.0139523718509033
 72     0.0010833096583363
 73    -0.0048949935369946
 74    -0.0151231696368968
 75    -0.0138756347522827
 76    -0.0000029397137700
 77    -0.0037491207069075
 78     0.0190408375541077
 79    -0.0139930576355322
 80    -0.0011068837860261
 81     0.0049004074339048
 82    -0.0151183524799835
 83    -0.0138731292941104
 84    -0.0000231960673320
 85    -0.0034846986302272
 86     0.0045804821378545
 87     0.0266427914722540
 88     0.0036053017134484
 89     0.0025386038907582
 90     0.0219346075559145
 91     0.0259808206321487
 92     0.0014408966806713
 93     0.0034789514231170
 94     0.0045323838494756
 95     0.0265950594471305
 96    -0.0035770532792395
 97    -0.0025478544592876
 98     0.0219312775134169
 99     0.0259790892254180
 100    -0.0014195705468958
 101     0.0000074979922861
 102     0.0247243533202662
 103    -0.0084364254402930
 104    -0.0000262242267772
 105     0.0000059830156567
 106    -0.0153452570066811
 107    -0.0315359335251161
 108     0.0000047823388664
 109    -0.0000054245962716
 110    -0.0320401479906297
 111     0.0002163951980654
 112     0.0000211325908741
 113    -0.0000129330985223
 114    -0.0103731617407238
 115    -0.0278395121419649
 116    -0.0000011669530861
 117     0.0000469022387903
 118    -0.0550704366234907
 119     0.0038153798600356
 120    -0.0000633627784827
 121     0.0000222642984404
 122    -0.0083345812601167
 123    -0.0228258759566505
 124     0.0000291807319149
 125     0.0458247201816341
 126     0.0053908428182158
 127    -0.0472952486344525
 128    -0.0042357072413834
 129    -0.0458201715569781
 130    -0.0053907483518513
 131     0.0473104572735214
 132     0.0042364057242161
 133    -0.0172679023292190
 134    -0.0033083463144452
 135    -0.0237302155564494
 136    -0.0016755222688252
 137     0.0172567192236075
 138     0.0033067175612562
 139     0.0237447540670124
 140     0.0016762802836468
 141     0.0152694703882408
 142     0.0013078651543672
 143     0.0311489876791505
 144     0.0030293503916521
 145    -0.0152763187502287
 146    -0.0013106530479506
 147    -0.0311371289800331
 148    -0.0030282310105143
 149     0.0218183048881412
 150     0.0010718913648376
 151     0.0079255171664457
 152     0.0003291969309483
 153     0.0000236398792979
 154    -0.0000034222379185
 155    -0.0002324303592611
 156    -0.0006899262543317
 157    -0.0000206623785690
 158    -0.0052929323105061
 159    -0.0249339734315922
 160    -0.0050633245164117
 161    -0.0134748430050150
 162     0.0007012763139902
 163    -0.0011254156925872
 164     0.0011274139321796
 165     0.0015134738049876
 166     0.0001688468581296
 167     0.0092042779983446
 168    -0.0039908907978345
 169    -0.0024634140160937
 170    -0.0093797552852501
 171    -0.0026572000545878
 172     0.0056736858872626
 173     0.0006306742356202
 174    -0.0012450354031389
 175    -0.0009055442783783
 176    -0.0002432210355274
 177    -0.0180791505722191
 178     0.0089176754060679
 179     0.0066733885958960
 180     0.0019958843585222
 181    -0.0045907597085688
 182    -0.0014667593499369
 183     0.0005830534816831
 184     0.0007394288930396
 Sym= 44A
 Ene= -0.109991
 Spin= Alpha
 Occup= 2.000000
  1     0.0040421434083772
  2    -0.2352420295857121
  3     0.0077871216189923
  4     0.1118345701011353
  5     0.1589953744421232
  6    -0.0441913010686553
  7    -0.0163459854232828
  8     0.0048561224024988
  9     0.0019869369124136
 10     0.0163648098629084
 11    -0.0251809352696082
 12     0.0052311277580163
 13    -0.1938459502132218
 14    -0.1800278488755475
 15     0.0476346687581313
 16     0.0098074719793530
 17    -0.0132306792248422
 18    -0.0028165849938279
 19     0.0071650661227042
 20    -0.3937262511540784
 21    -0.0026017782278115
 22    -0.2279903882438930
 23     0.0198831970145722
 24    -0.0030663871583956
 25     0.0115478542510664
 26     0.0188804255701240
 27     0.0006712086382773
 28     0.0293611125784749
 29     0.0575967239186891
 30     0.0015975196842559
 31     0.0259851662081078
 32    -0.0004458132293197
 33    -0.0002540909830820
 34     0.0034499444099161
 35     0.0077450634150896
 36    -0.0000506639385401
 37    -0.0000391984113079
 38    -0.0383389057256924
 39     0.2222140162113329
 40     0.0000605467924055
 41     0.0000381012868284
 42     0.0312578153046089
 43    -0.1843547808207582
 44     0.0000912286082426
 45     0.0000073822607462
 46     0.0313201864073398
 47    -0.0716225829341922
 48    -0.0000514003422010
 49     0.0000033653757873
 50     0.0553049491788558
 51    -0.1424216137885579
 52    -0.0000788064671400
 53     0.0127346190134040
 54    -0.0356032099361221
 55    -0.1872822359992545
 56    -0.0379050779751499
 57     0.0002964051553810
 58    -0.0039789144026142
 59     0.1742106978634318
 60     0.0174025013845118
 61    -0.0126881956534051
 62    -0.0355355668844351
 63    -0.1872632380112683
 64     0.0379598190240499
 65    -0.0003369888699959
 66    -0.0039494139878443
 67     0.1741846367192844
 68    -0.0174510209377234
 69    -0.0180222303961940
 70    -0.0791318201283216
 71     0.0323777337453876
 72    -0.0258361367937686
 73     0.0064212857727305
 74     0.0767793224744307
 75     0.0076325570043178
 76     0.0137924024295607
 77     0.0179658097283774
 78    -0.0789410315387658
 79     0.0324967672701280
 80     0.0260565747756634
 81    -0.0064381023781821
 82     0.0767708315252787
 83     0.0076212915442419
 84    -0.0136399150984933
 85    -0.0009096625660022
 86     0.0112290206364037
 87    -0.0368021012131846
 88     0.0140152089248224
 89    -0.0018264753989102
 90    -0.0764518720272235
 91    -0.0602443605350655
 92    -0.0128560057545777
 93     0.0009583312755198
 94     0.0113572059721647
 95    -0.0366212597204438
 96    -0.0142385439261014
 97     0.0018600305633033
 98    -0.0764417550128812
 99    -0.0602388317636278
 100     0.0127230483941322
 101    -0.0000596768078606
 102     0.0019078266632007
 103     0.0481908926370881
 104     0.0002308853503533
 105    -0.0000265184172657
 106    -0.0256395497188398
 107     0.1321351288349157
 108    -0.0000106071131833
 109     0.0000404583046095
 110     0.0267567671658255
 111     0.0789643863314350
 112    -0.0002006464837515
 113     0.0000570471350279
 114    -0.0604393960487960
 115     0.1341814556314187
 116    -0.0000356874629184
 117    -0.0003464214154460
 118     0.0228328394478426
 119     0.0697154605251670
 120     0.0004797065790020
 121    -0.0000774905378466
 122    -0.0522986810710713
 123     0.1127061643590118
 124    -0.0001248260746728
 125    -0.1567690313995749
 126    -0.0170260784516067
 127     0.1744277469465823
 128     0.0174495463263943
 129     0.1567629972173046
 130     0.0170246144560086
 131    -0.1744535364006159
 132    -0.0174490450865011
 133     0.0427882176198554
 134     0.0080437051310241
 135     0.0578583909840337
 136     0.0018070649707110
 137    -0.0426841856807414
 138    -0.0080344387588383
 139    -0.0579355477230720
 140    -0.0018129142688997
 141    -0.0441760404941611
 142    -0.0055055603815133
 143    -0.0883212957784155
 144    -0.0081519764455482
 145     0.0442734076641225
 146     0.0055161893512954
 147     0.0882580078960285
 148     0.0081467862912759
 149    -0.1163588535650265
 150    -0.0113523727506574
 151     0.0541445987817163
 152     0.0055131539208474
 153    -0.0000449964630549
 154     0.0000205189159979
 155    -0.0014573663846424
 156     0.0026567522941222
 157     0.0001057020300741
 158    -0.0015096755023874
 159     0.1195714149860376
 160     0.0513888136069082
 161     0.0425039021430361
 162    -0.0323471853882643
 163     0.0337441520463601
 164    -0.0103240196851537
 165    -0.0028416111835942
 166    -0.0042436642627403
 167    -0.0498171993631746
 168     0.0248135457443692
 169    -0.0177943725283965
 170    -0.0940963925746995
 171     0.0346253215733443
 172    -0.0369426415850760
 173     0.0058796770108872
 174     0.0083833642957475
 175     0.0046779468962785
 176     0.0341698212752030
 177     0.1914423601281354
 178    -0.0256050596372976
 179    -0.1074716215942810
 180    -0.0028122942043570
 181     0.0035249979634859
 182     0.0072460685167287
 183    -0.0113917296727173
 184    -0.0004354138819192
 Sym= 45A
 Ene= -0.109393
 Spin= Alpha
 Occup= 2.000000
  1     0.0050273834107610
  2    -0.0210088860623018
  3     0.0181667561228226
  4     0.0124202323154386
  5     0.0436046742529036
  6    -0.0040888383220032
  7    -0.0017841552958388
  8     0.0000557259737312
  9     0.0018551829353551
 10     0.0158795146715841
 11    -0.0001833131586726
 12    -0.0067958069371043
 13    -0.0455728272326932
 14    -0.0363861607762778
 15     0.0031876823037671
 16     0.0019325204493327
 17    -0.0012570971834426
 18    -0.0016200604959922
 19    -0.0112805834947064
 20    -0.0606309575641124
 21    -0.0036925445917161
 22    -0.0356127954029977
 23    -0.0073735320616688
 24     0.0010059193112106
 25     0.0010961053980740
 26     0.0026637060055241
 27    -0.0002578092796805
 28     0.0317036253794955
 29     0.0110804810788870
 30     0.0236406770791129
 31     0.0090219418565717
 32    -0.0001824913054163
 33    -0.0000457417712282
 34     0.0010566788516351
 35     0.0013328300150470
 36    -0.0000460638622334
 37    -0.0000093215794619
 38     0.0222117536858197
 39     0.0421962049941004
 40     0.0001380636137251
 41     0.0000020637244750
 42    -0.0168999779404588
 43    -0.0424245689653551
 44    -0.0001156227690680
 45    -0.0000431962086084
 46     0.0001918413413617
 47    -0.0094616428124308
 48    -0.0001473825681967
 49    -0.0000333060774346
 50    -0.0324338231914435
 51    -0.0097243318617156
 52     0.0001398351628333
 53     0.0035343688479573
 54     0.0151140303720527
 55    -0.0371140188283439
 56    -0.0034500865432693
 57    -0.0033817687631596
 58    -0.0000738368808755
 59     0.0365316130273852
 60    -0.0024382285778154
 61    -0.0035527995595492
 62     0.0151306889407133
 63    -0.0370823403325429
 64     0.0031791281678435
 65     0.0033734067529545
 66    -0.0000597168821054
 67     0.0365412049667480
 68     0.0027092546372372
 69    -0.0004667817028019
 70    -0.0206535259491041
 71    -0.0043017744591529
 72    -0.0013129072643107
 73     0.0044397339632554
 74    -0.0013087901424123
 75     0.0277322497228716
 76     0.0015987286641925
 77     0.0004604945633912
 78    -0.0207207145545717
 79    -0.0042981749891133
 80     0.0014850001075943
 81    -0.0043958130240576
 82    -0.0012396210117451
 83     0.0277907775939518
 84    -0.0015992849985698
 85    -0.0013883642885017
 86    -0.0066514932789471
 87    -0.0091225677774197
 88     0.0009840334422307
 89    -0.0036041406749401
 90    -0.0232932008012951
 91    -0.0198116735624428
 92    -0.0032861897125863
 93     0.0013799322765601
 94    -0.0066950566401305
 95    -0.0091396180924406
 96    -0.0011695448819824
 97     0.0035502804532091
 98    -0.0233289530348092
 99    -0.0198814709001628
 100     0.0032928493324612
 101    -0.0000222854436032
 102     0.0041878712697854
 103     0.0081751710633099
 104     0.0000989648234048
 105     0.0000152978971749
 106     0.0239844840635126
 107     0.0189736457058716
 108     0.0001195387784221
 109    -0.0000060097768464
 110     0.0219409251410615
 111     0.0289770384416553
 112    -0.0000930215805878
 113    -0.0000238889174432
 114     0.0441496686291154
 115     0.0093690236719378
 116    -0.0001053388004044
 117    -0.0001058883052700
 118     0.0224017445926877
 119     0.0295582346603501
 120     0.0001683372027670
 121     0.0001451704918436
 122     0.0497086950952657
 123     0.0053730570791467
 124     0.0002401764107377
 125    -0.0328196782227499
 126    -0.0033428068886696
 127     0.0337454334322153
 128     0.0024719031301952
 129     0.0329407782612455
 130     0.0033491086904806
 131    -0.0336098357794597
 132    -0.0024599620258232
 133     0.0055540982576219
 134     0.0019236990993861
 135     0.0228047603138900
 136     0.0018223787498776
 137    -0.0054766117136861
 138    -0.0019203531047480
 139    -0.0228424268480685
 140    -0.0018276780708533
 141    -0.0044513530335970
 142    -0.0007307423519064
 143    -0.0290301847081707
 144    -0.0029786692383808
 145     0.0045437233714634
 146     0.0007394967052112
 147     0.0290626100433838
 148     0.0029785851542225
 149     0.0070969168305033
 150     0.0115267043440027
 151    -0.1204204750891317
 152    -0.0688317489915468
 153     0.0002073165145444
 154     0.0002094475680761
 155    -0.0061800800756514
 156     0.0014824220015501
 157    -0.0000479918088032
 158     0.0430510327099984
 159     0.2021069748608605
 160    -0.0281118172676105
 161     0.1829595189581455
 162     0.2334488051296408
 163    -0.0972785086986474
 164     0.0139128822248204
 165    -0.0249022870676977
 166     0.0027661661575374
 167     0.0034058949526196
 168    -0.0068021853429128
 169     0.0549651376761622
 170     0.7251522273274809
 171    -0.0409291018728382
 172     0.0145057818221953
 173    -0.0389640062104895
 174    -0.0037123615627967
 175    -0.0000379754618448
 176    -0.0498528628460910
 177    -0.3752961355219990
 178    -0.0224208510443880
 179     0.2706755096855095
 180    -0.1903916679374431
 181     0.0821129767835265
 182     0.0056857610269820
 183     0.0314862216798566
 184    -0.0028843516876928
 Sym= 46A
 Ene= -0.109317
 Spin= Alpha
 Occup= 2.000000
  1     0.0000896634798743
  2    -0.0312017575982545
  3     0.0149531407642556
  4     0.0188130330000973
  5     0.0283068972770111
  6    -0.0021011794886693
  7    -0.0014426642658877
  8     0.0007989697999997
  9     0.0012939376914886
 10     0.0169091995450759
 11     0.0002336556670203
 12    -0.0030456694391710
 13    -0.0172929731018104
 14    -0.0363395326777189
 15     0.0026359848288951
 16     0.0007119358603641
 17    -0.0011331010511020
 18    -0.0016964882292473
 19    -0.0070885139874961
 20    -0.0463871416121228
 21    -0.0087029585092817
 22    -0.0273837616936253
 23     0.0079325841244272
 24    -0.0004248032180873
 25     0.0012044446852663
 26     0.0017486887758597
 27     0.0003880796225236
 28     0.0337195399897211
 29     0.0110219482509319
 30     0.0102760945455573
 31     0.0035896914186448
 32    -0.0001858541492544
 33    -0.0000352675876368
 34     0.0004302105032256
 35     0.0012550769475452
 36    -0.0000591481356331
 37    -0.0000130399228777
 38    -0.0039216163258597
 39     0.0697484252367168
 40     0.0000745632460162
 41     0.0000095964390549
 42     0.0026065770212449
 43    -0.0636180609605489
 44    -0.0000313014292836
 45    -0.0000173885882487
 46     0.0114000540604959
 47    -0.0174947758624285
 48    -0.0000760313129982
 49    -0.0000139753130525
 50     0.0082271282093652
 51    -0.0315480453136305
 52     0.0000433313377439
 53     0.0042385475244166
 54    -0.0065538829146736
 55    -0.0596715487002612
 56    -0.0093246776912767
 57    -0.0019260914918355
 58    -0.0028655812675329
 59     0.0583827540720139
 60     0.0017894903623240
 61    -0.0042363631727327
 62    -0.0065295200977931
 63    -0.0596540863464307
 64     0.0092202542143702
 65     0.0019133269972938
 66    -0.0028507932211412
 67     0.0583820774383741
 68    -0.0016812154871949
 69    -0.0045096007522424
 70    -0.0235190964415302
 71     0.0082375169647326
 72    -0.0071449365839124
 73     0.0026062057284042
 74     0.0138804211119433
 75     0.0068861914529908
 76    -0.0003267757819946
 77     0.0044943630960653
 78    -0.0235030770673708
 79     0.0082673652708647
 80     0.0072702600721504
 81    -0.0025904077414896
 82     0.0139085408618840
 83     0.0069096783960245
 84     0.0003603752684338
 85    -0.0011894633978702
 86    -0.0010610127356821
 87    -0.0119053367783829
 88     0.0044009998724324
 89     0.0008127562791539
 90    -0.0265058100584319
 91    -0.0182860843857834
 92     0.0009177261894678
 93     0.0011965241456544
 94    -0.0010488212692108
 95    -0.0118696169895238
 96    -0.0045317370683155
 97    -0.0008308069913847
 98    -0.0265191960332812
 99    -0.0183170363030009
 100    -0.0009461063764478
 101    -0.0000230322551589
 102    -0.0010773197660659
 103     0.0106961665534701
 104     0.0000935979494081
 105    -0.0000013747029255
 106    -0.0000008271994040
 107     0.0397800828536759
 108     0.0000457489391602
 109     0.0000088631016744
 110     0.0090058963850915
 111     0.0297860302749303
 112    -0.0000878749542561
 113    -0.0000175718261987
 114    -0.0116233961699231
 115     0.0192620443231457
 116    -0.0000692827021981
 117    -0.0001228457051827
 118     0.0094060941391129
 119     0.0305047819171799
 120     0.0001817567614757
 121     0.0000158313893339
 122    -0.0125716767229204
 123     0.0027054084069531
 124     0.0000672465913610
 125    -0.0514561517020242
 126    -0.0055714371099906
 127     0.0560307951617159
 128     0.0053487985467222
 129     0.0515082890433858
 130     0.0055738821153807
 131    -0.0559778195395238
 132    -0.0053435464141268
 133     0.0117362558435307
 134     0.0025961569375700
 135     0.0181744157241536
 136     0.0006326992931049
 137    -0.0116790557245552
 138    -0.0025926135774902
 139    -0.0182069611579867
 140    -0.0006362677979339
 141    -0.0117909149469463
 142    -0.0016102593933701
 143    -0.0258515346240746
 144    -0.0022323008874880
 145     0.0118528514596937
 146     0.0016161122733853
 147     0.0258511534799842
 148     0.0022361519982085
 149     0.0728897884422380
 150     0.0719538717824144
 151     0.0261731064608852
 152     0.0135531011958028
 153     0.0000136338170226
 154    -0.0001112767921599
 155     0.0010232954083791
 156     0.0082949538961395
 157    -0.0002162318113906
 158    -0.0323839803197202
 159    -0.6075865633617641
 160    -0.0256613444765721
 161    -0.3315249353734124
 162     0.0881547729372536
 163    -0.0308589023491680
 164     0.0242649385431611
 165     0.0274436454622900
 166    -0.0000699427344416
 167     0.0301440149255294
 168    -0.0549651940490692
 169    -0.0116313017119895
 170    -0.1443111824960083
 171    -0.2588641862547799
 172     0.0971795858151690
 173     0.0077482127962313
 174    -0.0247285197981459
 175    -0.0010953941441535
 176    -0.0125261817312136
 177    -0.4943359617751887
 178     0.0370315747895710
 179     0.2417610350592105
 180     0.1716635093921527
 181    -0.0668773279986870
 182    -0.0280938198451153
 183     0.0161213402021652
 184     0.0012386708729160
 Sym= 47A
 Ene= -0.106894
 Spin= Alpha
 Occup= 2.000000
  1    -0.1231274811494425
  2    -0.0333056650957040
  3    -0.1606834747286284
  4    -0.0297028350191741
  5    -0.2151386375271743
  6    -0.0308820641238801
  7    -0.0032609336092178
  8    -0.0017816641122853
  9    -0.0149229155321312
 10    -0.0689420512803740
 11    -0.0139397884663585
 12     0.1454199879698131
 13     0.0787239602822643
 14     0.0749223475326102
 15     0.0106700052474649
 16    -0.0004734674921029
 17    -0.0013105465634875
 18     0.0052327268998919
 19     0.1693256139942222
 20     0.0699607682747747
 21    -0.0508772096830741
 22     0.0095625731882836
 23     0.1395332953504601
 24     0.0199776811386708
 25    -0.0022403227681177
 26     0.0009579317062319
 27     0.0095710663138729
 28    -0.1162878846495705
 29    -0.0213315461151525
 30    -0.3131910464816097
 31    -0.0583976064529603
 32     0.0006630250925438
 33    -0.0000827136079899
 34     0.0075821556549747
 35     0.0026067820090655
 36     0.0003650779131615
 37     0.0000381651096641
 38    -0.1879642604101008
 39     0.0098535358367199
 40     0.0001044858311195
 41    -0.0000728566336537
 42     0.1673739851597705
 43     0.0368274478906891
 44    -0.0004419475163111
 45    -0.0000644594453378
 46    -0.0043823240090571
 47    -0.0453947376261239
 48    -0.0001187075030587
 49    -0.0000254504837090
 50     0.2337087933923040
 51    -0.0963782455708146
 52     0.0004269818094955
 53    -0.0025527762584304
 54    -0.1194908296752348
 55     0.0022198297031877
 56    -0.0273694287321469
 57     0.0179679903957760
 58     0.0255752961094133
 59    -0.0139953424481578
 60     0.0358471029035752
 61     0.0024359542870717
 62    -0.1195021167027859
 63     0.0021949090271489
 64     0.0269628289402647
 65    -0.0179021854146996
 66     0.0255209306900745
 67    -0.0138610717014743
 68    -0.0354017509588658
 69    -0.0171332057603739
 70     0.0214508323970498
 71     0.0444191260808310
 72    -0.0257435022567597
 73    -0.0194604149045939
 74     0.0697213394073705
 75    -0.1341651055459546
 76     0.0147604913153126
 77     0.0172236594071923
 78     0.0205848477899944
 79     0.0438508627723126
 80     0.0256017353806712
 81     0.0195133089752342
 82     0.0698293606579295
 83    -0.1340562362956058
 84    -0.0152243431417585
 85     0.0013995459034797
 86     0.0595701308348140
 87     0.0363450994567662
 88     0.0175345661396550
 89     0.0153723117630714
 90     0.0265366854660176
 91     0.0748761091261286
 92    -0.0051996261837529
 93    -0.0014948388031689
 94     0.0588496989023375
 95     0.0356708888617832
 96    -0.0173704030147668
 97    -0.0154852095271387
 98     0.0264695513109899
 99     0.0747904342344448
 100     0.0056914263767369
 101     0.0000838342729289
 102     0.0202562071599694
 103     0.0168204922703006
 104    -0.0002763525241468
 105     0.0000698937690275
 106    -0.1963661091361299
 107     0.0428757557538767
 108    -0.0000266314396187
 109    -0.0001169984681202
 110    -0.1194111647128013
 111    -0.0449799920106856
 112     0.0002773451553170
 113    -0.0002237139403592
 114    -0.2721301249135111
 115     0.0926225010051787
 116    -0.0001015186363100
 117     0.0005165666294140
 118    -0.1580869834206100
 119    -0.0595568154119192
 120    -0.0007134797356992
 121     0.0003840750243305
 122    -0.2411723920852486
 123     0.0832198577924341
 124     0.0003349064661176
 125     0.0142297655566160
 126     0.0011140439000406
 127     0.0028053930743821
 128     0.0054799354972567
 129    -0.0139994776402802
 130    -0.0011052937503515
 131    -0.0026107858147557
 132    -0.0054667838641860
 133     0.0062214021908643
 134    -0.0033675102576611
 135    -0.0718319078217930
 136    -0.0096222863324870
 137    -0.0063204144132518
 138     0.0033517717648796
 139     0.0720247491228520
 140     0.0096290227990546
 141    -0.0156175436746675
 142    -0.0018539309528245
 143     0.0708522282321190
 144     0.0079968499754541
 145     0.0155604233766610
 146     0.0018520973377051
 147    -0.0705593703167515
 148    -0.0079753367565616
 149    -0.0893256807692145
 150     0.0141041328821140
 151     0.2604611834276135
 152    -0.0417965313770126
 153     0.0003383416853705
 154    -0.0000000834811553
 155    -0.0054815462341901
 156     0.0021804473463180
 157    -0.0001979488123707
 158    -0.0918418290509120
 159     0.0336682191185402
 160     0.1168484007674759
 161    -0.0118355996201284
 162     0.1772948514534630
 163     0.0167064135523183
 164    -0.0010464071507244
 165     0.0001751911749255
 166    -0.0124534474804042
 167    -0.0488945835778973
 168     0.0093963922969320
 169    -0.1033024355746350
 170     0.1120864272264477
 171    -0.0579641923775498
 172    -0.0055876039594587
 173    -0.0015234126403828
 174     0.0003268125312202
 175     0.0041594595026605
 176     0.1214695141174543
 177    -0.0867090364198044
 178     0.0448363431805408
 179     0.0282310442577051
 180    -0.1194495643774898
 181    -0.0112935421023418
 182    -0.0010992485731887
 183     0.0006596364019410
 184     0.0083580374986527
 Sym= 48A
 Ene= -0.106466
 Spin= Alpha
 Occup= 2.000000
  1    -0.2534425316366064
  2    -0.0979280950563653
  3     0.1149352423670472
  4     0.0515578440059110
  5    -0.0326394644003584
  6    -0.0050402694125297
  7    -0.0005182291590885
  8    -0.0006298490263513
  9    -0.0019776546350784
 10     0.2777500417787727
 11     0.0575596907890057
 12     0.1577900174997559
 13     0.0626178773425578
 14    -0.2911151427816018
 15    -0.0454559459452451
 16     0.0000702836007728
 17     0.0060975551508875
 18    -0.0201677924797038
 19     0.0590391486058232
 20    -0.0056446485122251
 21    -0.3365418860813342
 22    -0.0852272108231537
 23     0.3270631311585883
 24     0.0516795188903367
 25    -0.0058453497245061
 26     0.0032251190352280
 27     0.0227830295206196
 28     0.4522125559536310
 29     0.0824353627672631
 30    -0.3183286176520012
 31    -0.0588937753857574
 32    -0.0037464923850607
 33     0.0003762950587356
 34     0.0106137241040982
 35    -0.0145310689069918
 36    -0.0019471361862721
 37    -0.0001835946858087
 38     0.0274482968242970
 39    -0.0340171717656668
 40     0.0005483198713676
 41     0.0001610984747830
 42    -0.0237944724217204
 43     0.0187638422859563
 44     0.0005950400994136
 45    -0.0000112980088861
 46    -0.0276673475063062
 47     0.0346462542273078
 48    -0.0004158500958854
 49    -0.0000575131807180
 50    -0.0442191452643360
 51     0.0439020223892971
 52    -0.0005369844903514
 53    -0.0008352500888515
 54     0.0249887191925853
 55     0.0303484402785037
 56     0.0084703991030930
 57    -0.0047512975136753
 58     0.0018898715762105
 59    -0.0193424682559353
 60    -0.0075478497515235
 61     0.0010314356661170
 62     0.0252284564618166
 63     0.0306628621360914
 64    -0.0083946915559717
 65     0.0045471001401437
 66     0.0021143390903347
 67    -0.0196806273559735
 68     0.0075263034103604
 69     0.0135564171992716
 70     0.0243109615731807
 71    -0.0377608497477076
 72    -0.0067549133723413
 73     0.0016944585346332
 74    -0.0301429748803196
 75     0.0183380471344671
 76    -0.0041126776658591
 77    -0.0139458361559930
 78     0.0253482504164731
 79    -0.0370388633858326
 80     0.0083893149624601
 81    -0.0016859774052687
 82    -0.0301712413130154
 83     0.0182505594762370
 84     0.0052418741960845
 85    -0.0265973025946308
 86    -0.0416247183682933
 87     0.0467061601184130
 88     0.0267147208223355
 89    -0.0011519863315941
 90     0.0077063516039835
 91     0.0030424608618768
 92     0.0026263070532369
 93     0.0269296416840594
 94    -0.0409470915938630
 95     0.0478608048537181
 96    -0.0283437804445129
 97     0.0012427313742885
 98     0.0077500081250153
 99     0.0030601255746797
 100    -0.0037636488108926
 101    -0.0004814031462733
 102     0.0434579571027142
 103    -0.0596100005981649
 104     0.0016974242732942
 105    -0.0001102546724899
 106     0.0315674383692397
 107    -0.0307291278417009
 108     0.0003309044196455
 109     0.0004374215134722
 110    -0.0986200744373956
 111     0.1438120184832088
 112    -0.0017693107720086
 113     0.0003830035375612
 114     0.0526416660758477
 115    -0.0438252493694654
 116    -0.0002312228850080
 117    -0.0027456200283988
 118    -0.1425694967588437
 119     0.2056728932989075
 120     0.0038435339316434
 121    -0.0003635608356533
 122     0.0477455164473946
 123    -0.0395416513924252
 124    -0.0001990125441195
 125     0.0221234091910257
 126     0.0037752585137395
 127    -0.0236836801953872
 128    -0.0033012769664019
 129    -0.0222725493599363
 130    -0.0037986392092267
 131     0.0237825379305135
 132     0.0033219943050703
 133    -0.0430678413969987
 134    -0.0044166511893624
 135    -0.0030087609581082
 136     0.0005295205042461
 137     0.0438932266841963
 138     0.0044893060854582
 139     0.0024826811448510
 140    -0.0005665110551829
 141     0.0385077210116682
 142     0.0007066690669896
 143     0.0069188417747589
 144     0.0005486416943396
 145    -0.0377388807198569
 146    -0.0006425547959440
 147    -0.0074926188661492
 148    -0.0005900786759781
 149     0.0453457150806525
 150    -0.0069263312298984
 151    -0.0548861542481740
 152     0.0084352191566337
 153     0.0000317131331196
 154     0.0002046938541701
 155     0.0007591471734497
 156    -0.0006199381739258
 157     0.0002396341946234
 158     0.0149405584663697
 159    -0.0004679463138325
 160    -0.0359110205524566
 161     0.0087653115537549
 162    -0.0442878687781323
 163    -0.0052774372982223
 164     0.0004431489624501
 165    -0.0002733810865864
 166     0.0031506328818761
 167     0.0266596079891320
 168    -0.0051005107812375
 169     0.0231733668545603
 170    -0.0185319168217210
 171     0.0290107909579588
 172     0.0034147312993624
 173     0.0001050706510763
 174    -0.0002894347867245
 175    -0.0021381403045404
 176    -0.0321729099414802
 177     0.0209960556821381
 178     0.0010292979073413
 179    -0.0088220998795515
 180     0.0161567814489300
 181     0.0018888336352955
 182     0.0001746432144467
 183    -0.0000265530222218
 184    -0.0012068482167917
 Sym= 49A
 Ene= -0.105139
 Spin= Alpha
 Occup= 2.000000
  1    -0.0258493566030031
  2    -0.0026995503599916
  3    -0.0430893577667992
  4    -0.0043255831219590
  5    -0.0074781474107259
  6    -0.0008302111917814
  7     0.0010923936048119
  8     0.0006247673066217
  9    -0.0026829328468599
 10     0.0507893151428087
 11     0.0053249280187670
 12     0.0003336461939286
 13     0.0000530066765102
 14    -0.0085599308598557
 15    -0.0010320991739613
 16     0.0000017778292936
 17    -0.0012496398184803
 18    -0.0027948034381380
 19    -0.0252358320382722
 20    -0.0025763864736458
 21     0.0427026067268644
 22     0.0042191206000038
 23    -0.0068214685448815
 24    -0.0007104134027698
 25    -0.0011067686818177
 26     0.0006352806845086
 27    -0.0026378898628032
 28     0.0016335463654383
 29     0.0002302388863731
 30    -0.0005699710996899
 31    -0.0001034834915853
 32     0.0115481029660204
 33    -0.0068360243850345
 34     0.0000315591257651
 35    -0.0000188978488335
 36     0.0127943996881055
 37    -0.0005717563885046
 38     0.0004319255409246
 39     0.0001265761752910
 40     0.0187291017401739
 41    -0.0242370631639460
 42    -0.0003833188094072
 43    -0.0002569461477383
 44    -0.0653734201748193
 45    -0.0076395595189980
 46    -0.0000877172337909
 47     0.0000791065829239
 48    -0.0196699261863317
 49    -0.0000553052739308
 50    -0.0005797934057423
 51     0.0002896749662732
 52     0.0674848258848102
 53    -0.0175405684824682
 54     0.0051587375002679
 55    -0.0109773277520404
 56    -0.0239640594703642
 57     0.0070937022578372
 58     0.0056273512852745
 59    -0.0088648748763157
 60     0.0286610350855108
 61    -0.0175857340409616
 62    -0.0045610267143020
 63     0.0107045985051352
 64    -0.0240735699133383
 65     0.0072207065576620
 66    -0.0056760744691994
 67     0.0092270639894909
 68     0.0288676935539981
 69     0.0062497087885916
 70     0.3838057773502201
 71     0.2913856648181881
 72     0.0100482898056739
 73     0.0002783167624585
 74    -0.0067493398814984
 75    -0.0063877506303479
 76    -0.0549189926109713
 77     0.0061416649686889
 78    -0.3839851925426439
 79    -0.2917244445849166
 80     0.0099651377450073
 81     0.0001854375111139
 82     0.0062691485952836
 83     0.0070669339160475
 84    -0.0547827140360979
 85    -0.0029294621269740
 86     0.3740855648187660
 87     0.2858066700814074
 88    -0.0089577698697808
 89    -0.0064881792660415
 90     0.0024269980812013
 91     0.0038552451000662
 92     0.0561351533806669
 93    -0.0027093105023556
 94    -0.3745799174016824
 95    -0.2856769226667262
 96    -0.0092547498772318
 97    -0.0064711899207340
 98    -0.0026932662260961
 99    -0.0042033526624626
 100     0.0560192962397853
 101     0.0040602071696394
 102     0.0001342514311813
 103    -0.0001666943511842
 104    -0.0010723168374674
 105     0.0104242581055089
 106     0.0005063591875001
 107    -0.0000542827505030
 108    -0.0237119192832115
 109    -0.0087231168714494
 110    -0.0000879550304137
 111     0.0007155538512081
 112     0.0023114981980691
 113    -0.0378841409901599
 114     0.0006012830461716
 115    -0.0004246078111116
 116     0.0179580511155383
 117     0.0168233754976734
 118    -0.0001814948093052
 119     0.0009252664111874
 120    -0.0183819543750435
 121     0.0426148865819657
 122     0.0004653076962384
 123    -0.0005118028004948
 124     0.0333328857092860
 125     0.0080147344244182
 126    -0.0052424720644124
 127     0.0160110910692457
 128     0.0015170293209721
 129     0.0083170894335093
 130    -0.0052153016861988
 131     0.0157730386708136
 132     0.0015216936629986
 133     0.0027179267583774
 134     0.0005407576242773
 135     0.0236778405396731
 136     0.0012765498008943
 137     0.0029243913587400
 138     0.0005325494401252
 139     0.0233270822170870
 140     0.0012357518663327
 141     0.0034346580432487
 142     0.0001620038692550
 143     0.0294765494432503
 144     0.0022269891425450
 145     0.0032254951983844
 146     0.0001658273217764
 147     0.0298261967558684
 148     0.0022601558810182
 149     0.0012288888534218
 150    -0.0002352676432190
 151    -0.0001135785815846
 152    -0.0000147203314713
 153     0.0116760401301997
 154    -0.0180006546797291
 155     0.0000623339469589
 156     0.0000696508356990
 157    -0.0281095379980558
 158     0.0594678166947276
 159    -0.0040129220336509
 160    -0.1044649181646678
 161     0.0073486958287271
 162    -0.0243575153940235
 163    -0.0013153441884663
 164    -0.0024830427310946
 165     0.0014485541072563
 166     0.0066352400935644
 167    -0.1187246566748248
 168     0.0081237182404813
 169    -0.0001226253702901
 170    -0.0001439606411593
 171    -0.0229487586909837
 172    -0.0011402493312786
 173    -0.0000025751839023
 174    -0.0029480066896770
 175     0.0065794162766048
 176     0.0598946789385185
 177    -0.0039149536588372
 178     0.1049655830926395
 179    -0.0074691676109717
 180    -0.0243768414018915
 181    -0.0013513736269958
 182     0.0024725959907364
 183     0.0014456039431849
 184     0.0066108778822622
 Sym= 50A
 Ene= -0.103962
 Spin= Alpha
 Occup= 2.000000
  1    -0.1265686127419080
  2    -0.0374096137019415
  3    -0.3247965159705912
  4    -0.0695857924542725
  5    -0.2886416813798838
  6    -0.0565233386411867
  7    -0.0071592876923001
  8    -0.0040546389109205
  9    -0.0186056314282278
 10    -0.1866718775958152
 11    -0.0433843209698945
 12     0.2356298056429051
 13     0.0019997932741838
 14     0.1824755972693209
 15     0.0353152532746074
 16     0.0004455492796226
 17    -0.0062242471643905
 18     0.0103531880533250
 19     0.3001958213436056
 20     0.0152565449293479
 21     0.0651657618768389
 22    -0.0174458051693437
 23     0.1002346100793507
 24     0.0196328392851901
 25    -0.0029432603710804
 26     0.0023957006003587
 27     0.0050605566881064
 28    -0.2535379642129216
 29    -0.0494686445436192
 30    -0.3059690826382852
 31    -0.0608592375988039
 32     0.0100120030738829
 33    -0.0019379837641789
 34     0.0315376797480390
 35     0.0257967272400527
 36     0.0061395946881856
 37     0.0005041635729785
 38     0.0216073099086170
 39     0.0526675746458151
 40    -0.0013030537530320
 41    -0.0003015175284731
 42     0.0032971906904810
 43    -0.0365185578916633
 44    -0.0015370223677788
 45    -0.0000288810976822
 46    -0.0817808428068776
 47    -0.0745884183179048
 48     0.0009116335688745
 49     0.0000613870758400
 50    -0.0997467330844573
 51    -0.0123646432271559
 52     0.0013924031230229
 53     0.0127768874637335
 54     0.0496084922532422
 55    -0.0430545288973738
 56    -0.0144661675112499
 57    -0.0067485871624644
 58     0.0422497819130717
 59     0.0309372197833057
 60     0.0031719228537055
 61    -0.0130779414276424
 62     0.0489150950935272
 63    -0.0440415479010107
 64     0.0138020450215693
 65     0.0071733965499989
 66     0.0416234325575633
 67     0.0317893855856749
 68    -0.0028079989071247
 69    -0.0018753278223931
 70    -0.0691611153367076
 71    -0.0382433822652730
 72    -0.0044361878667192
 73     0.0024685975652882
 74    -0.0150622649717313
 75     0.0792725513465709
 76     0.0131399967898497
 77     0.0028940420072244
 78    -0.0648651540708245
 79    -0.0346273512179098
 80     0.0000562345523938
 81    -0.0024492460717985
 82    -0.0149283919671352
 83     0.0795254052189256
 84    -0.0157818473610803
 85    -0.0001246912364631
 86     0.0312496174222757
 87     0.0172680951049397
 88     0.0024444363978474
 89    -0.0075704768252539
 90    -0.0474839133383330
 91    -0.0327597872638628
 92    -0.0134020237633170
 93    -0.0008493228068594
 94     0.0365141340594620
 95     0.0194851525147193
 96     0.0018836298363204
 97     0.0073139892891411
 98    -0.0475866871532188
 99    -0.0328314231611619
 100     0.0160367149886868
 101     0.0013721591553206
 102     0.0896977531619500
 103     0.0766189813323919
 104    -0.0046893857784205
 105     0.0002390582382884
 106     0.0584597577926039
 107     0.0204265053228805
 108    -0.0006942991534372
 109    -0.0013872580895913
 110     0.0434345161343573
 111     0.0339482450364281
 112     0.0049813364522446
 113    -0.0008500928335319
 114     0.1299860381732770
 115     0.0029978372162716
 116     0.0005758003016050
 117     0.0079148737335361
 118    -0.0184975278423871
 119    -0.0172684632922283
 120    -0.0109433658280902
 121     0.0007957665115004
 122     0.1422364144924319
 123     0.0024347153616445
 124     0.0005260526823008
 125    -0.0307842232611139
 126    -0.0014622086096969
 127     0.0328914365245566
 128     0.0010113104194356
 129     0.0314248132806156
 130     0.0016564365592978
 131    -0.0330353645840983
 132    -0.0010693318536713
 133     0.0060687269440804
 134     0.0020464731319297
 135     0.0477973964910769
 136     0.0039565912646289
 137    -0.0082363344193994
 138    -0.0022564449324107
 139    -0.0466046303200231
 140    -0.0038722742977716
 141    -0.0072435349371828
 142    -0.0008188842269565
 143    -0.0583287238293728
 144    -0.0063758454927304
 145     0.0052627557951360
 146     0.0006716016008911
 147     0.0596665365203289
 148     0.0064758320555358
 149    -0.0055574851687179
 150     0.0009620100567897
 151    -0.2742490418821517
 152     0.0413385265257720
 153    -0.0000879422525797
 154    -0.0004671661460032
 155    -0.0112440770338209
 156    -0.0004392077662951
 157    -0.0005677048208532
 158     0.1637611621011800
 159    -0.0286006367947741
 160    -0.1036808821816361
 161     0.0275925699606340
 162    -0.1542522003776722
 163    -0.0284084638376862
 164     0.0031933373416486
 165    -0.0026330793663832
 166     0.0107059060200230
 167    -0.0072188502587341
 168     0.0008070992656419
 169     0.1734226817236650
 170    -0.0216448210565567
 171    -0.0043544400586730
 172    -0.0007639038299663
 173    -0.0013045842355554
 174     0.0000430053044929
 175     0.0003818396786100
 176    -0.1581236609524237
 177     0.0292086257887929
 178    -0.1053086939408032
 179     0.0290560601601834
 180     0.1575802977812334
 181     0.0291897780988762
 182     0.0034274761424574
 183     0.0027463714906229
 184    -0.0105837827567372
 Sym= 51A
 Ene= -0.103504
 Spin= Alpha
 Occup= 2.000000
  1    -0.2367036158872887
  2    -0.0294133720019355
  3    -0.3981279527668436
  4    -0.0513630824637743
  5    -0.0122456461887777
  6    -0.0064007511817094
  7     0.0116883042674920
  8     0.0066911605014930
  9    -0.0237329931280178
 10     0.4834980620061192
 11     0.0650324215326939
 12    -0.0081588157033007
 13     0.0002025880716296
 14    -0.0357138561179777
 15    -0.0111821825810198
 16     0.0000018436292815
 17    -0.0128563259517536
 18    -0.0255220684240037
 19    -0.2513990206896342
 20    -0.0309381823392985
 21     0.4069560522661754
 22     0.0544078908207064
 23    -0.0247436737594889
 24    -0.0088750544745500
 25    -0.0113478265997269
 26     0.0064934679945583
 27    -0.0244468375329089
 28     0.0172203906336672
 29     0.0027187226613061
 30     0.0093497823455809
 31     0.0019527783667476
 32     0.1975311500644856
 33    -0.0434936884737438
 34    -0.0011921430805010
 35    -0.0011080441689918
 36     0.1289736894220160
 37     0.0104737404333842
 38     0.0002188235217845
 39    -0.0012986094129224
 40    -0.0022830987426968
 41    -0.0127345003253683
 42    -0.0011274723444995
 43     0.0001035735488449
 44    -0.0789005432505934
 45    -0.0110318999552179
 46     0.0031945180321359
 47     0.0034371110746914
 48    -0.0092883490193334
 49    -0.0052694471274853
 50     0.0028714505425793
 51     0.0018960144895417
 52     0.0778715834619346
 53    -0.0078014758138924
 54     0.0063010000365160
 55     0.0111546542776413
 56    -0.0399500402477391
 57     0.0055136705981199
 58     0.0056050801623413
 59    -0.0151092894084326
 60     0.0371028374943934
 61    -0.0069683644178768
 62    -0.0089371829122530
 63    -0.0091353467890042
 64    -0.0413627760400434
 65     0.0055355443924338
 66    -0.0093939069255472
 67     0.0148159498362887
 68     0.0380944319677175
 69     0.0114584535011551
 70    -0.0643925851474334
 71    -0.0606548746190388
 72    -0.0355830645795827
 73     0.0039600813811703
 74    -0.0093257088516368
 75    -0.0120204919288201
 76    -0.0509637189018361
 77     0.0108578171663028
 78     0.0695214331713492
 79     0.0624824812406973
 80    -0.0354278379102468
 81     0.0039124730442609
 82     0.0082673306059089
 83     0.0067282986070999
 84    -0.0488297257197337
 85    -0.0130796254881776
 86    -0.0836319054087984
 87    -0.0426261024014942
 88     0.0342790483250582
 89    -0.0092134142392964
 90     0.0059540989858231
 91     0.0077785766677666
 92     0.0519436421832702
 93    -0.0121220644433970
 94     0.0790519068824235
 95     0.0417905291219396
 96     0.0334133475153001
 97    -0.0101197676052436
 98    -0.0027145879017471
 99    -0.0055226021630084
 100     0.0497631018901972
 101     0.0272818507798242
 102    -0.0030800813668524
 103    -0.0038641504993174
 104    -0.0928860509610493
 105     0.0118936093174257
 106    -0.0011232480317256
 107    -0.0010471070763504
 108    -0.0081200185947843
 109    -0.0328749124106539
 110    -0.0026916252276170
 111     0.0017647624219137
 112     0.0977091149118024
 113    -0.0378223053101022
 114    -0.0043368574773541
 115    -0.0025807375828542
 116     0.0033645344633298
 117     0.1640212786812294
 118    -0.0006327158355797
 119     0.0048088024847100
 120    -0.2236993374803097
 121     0.0573278454165626
 122    -0.0054665401341242
 123    -0.0032869482404664
 124     0.0578620864952482
 125     0.0236955250026828
 126     0.0036463088890618
 127     0.0132096403191069
 128     0.0004260999735899
 129     0.0228116970637844
 130     0.0036536090395331
 131     0.0142673731378043
 132     0.0004229588797036
 133    -0.0191423562559538
 134    -0.0024620398493564
 135     0.0184821232560688
 136     0.0009287230258946
 137    -0.0176435748626012
 138    -0.0022908790365869
 139     0.0220966826172951
 140     0.0012335275596558
 141    -0.0138401089817479
 142    -0.0008720664517755
 143     0.0302614711075907
 144     0.0024199530261071
 145    -0.0151629538872836
 146    -0.0008929053384827
 147     0.0255037212660358
 148     0.0018600923329443
 149     0.0084341566919110
 150    -0.0013563322319080
 151     0.0134895696041077
 152    -0.0021146714451425
 153     0.0411815182745428
 154    -0.0140606117959594
 155     0.0008094051891582
 156     0.0005292467949683
 157    -0.0374609608511321
 158     0.0606660090111362
 159    -0.0068183613543707
 160    -0.1251499803492753
 161     0.0134194159418382
 162    -0.0093539672998848
 163    -0.0010309412503281
 164    -0.0033687856731311
 165     0.0020264245741456
 166     0.0072094449551925
 167    -0.1376563583646334
 168     0.0148780673748081
 169    -0.0095761381620354
 170     0.0006189213593485
 171    -0.0085068177398037
 172    -0.0009305184380385
 173     0.0000540357373319
 174    -0.0040000257572892
 175     0.0072076484170210
 176     0.0783719656545907
 177    -0.0094573714142198
 178     0.1366336417057589
 179    -0.0167478784060200
 180    -0.0253325160241932
 181    -0.0040675655765454
 182     0.0030016948978373
 183     0.0017498144006256
 184     0.0082355058061025
 Sym= 52A
 Ene= -0.102865
 Spin= Alpha
 Occup= 2.000000
  1     0.0025681933911893
  2    -0.0056511894367206
  3    -0.0426298412622360
  4    -0.0081342518480670
  5    -0.0412849003684174
  6    -0.0079730341091797
  7    -0.0014762113800772
  8    -0.0008803668935972
  9    -0.0016455024534395
 10    -0.0570051041942936
 11    -0.0114099779970617
 12     0.0319399035266180
 13    -0.0017060227656061
 14     0.0368223691498230
 15     0.0075107757205522
 16    -0.0000396771800556
 17    -0.0008057160938776
 18     0.0028126857966378
 19     0.0579206146150616
 20    -0.0008505478392631
 21     0.0118953551499979
 22    -0.0036034283759563
 23     0.0044284773685378
 24     0.0011325390572418
 25     0.0001749335195561
 26    -0.0001636156436742
 27     0.0009107208807339
 28    -0.0459000582486084
 29    -0.0094436925903786
 30    -0.0324903048695936
 31    -0.0068755010247436
 32    -0.0059879440737718
 33     0.0010454337224365
 34     0.0048616582272234
 35     0.0066973120487537
 36    -0.0035925721839578
 37    -0.0002592441969774
 38    -0.0067746150374608
 39     0.0703249496043099
 40     0.0032265294741351
 41    -0.0005710308545012
 42     0.0114697336159557
 43    -0.0804699861181547
 44    -0.0044393984614998
 45    -0.0011055059705340
 46     0.0006081841409281
 47    -0.0231761186864939
 48    -0.0034235714290451
 49    -0.0007238683925638
 50     0.0087671474448615
 51     0.0356618895917545
 52     0.0047193573937221
 53     0.0069698556114722
 54    -0.0035525927191789
 55    -0.0619020584928519
 56    -0.0075768261992677
 57    -0.0103876323509315
 58     0.0042748444228089
 59     0.0709978588291716
 60    -0.0054246911914412
 61    -0.0077205993623167
 62    -0.0033226513077758
 63    -0.0614944062107665
 64     0.0005302042245299
 65     0.0104163721391159
 66     0.0043182902839634
 67     0.0719986452072301
 68     0.0124899966089589
 69    -0.0049023069158653
 70    -0.0286306874881409
 71     0.0028259248993386
 72    -0.0034446321671498
 73     0.0008917017002588
 74    -0.0412672534802032
 75    -0.0039320290117697
 76    -0.0216496265233429
 77     0.0044348777501176
 78    -0.0246882746011833
 79     0.0071550447283033
 80     0.0076825956079194
 81    -0.0000931337752215
 82    -0.0397076361177007
 83    -0.0026068506977432
 84     0.0177927027456026
 85     0.0002606886384559
 86     0.0042868238078728
 87    -0.0089810887602289
 88    -0.0000601300716086
 89     0.0121075229327933
 90    -0.0217899648561297
 91     0.0137003608352507
 92     0.0257205926605264
 93    -0.0002351075177493
 94     0.0085977727999992
 95    -0.0049737019690187
 96    -0.0044098304860266
 97    -0.0135185299474294
 98    -0.0224267945805270
 99     0.0124326187157462
 100    -0.0216896616736755
 101    -0.0009122534506179
 102     0.0094358298134731
 103     0.0204866405265691
 104     0.0030309188013134
 105     0.0006652542996136
 106     0.0004697655139188
 107     0.0149277624794485
 108     0.0009732145886432
 109     0.0004694751068349
 110     0.0129915092675633
 111     0.0180023620334688
 112    -0.0032588009409055
 113    -0.0018483432364446
 114    -0.0235525719559000
 115    -0.1039910822839035
 116    -0.0010956482614043
 117    -0.0044990332662139
 118     0.0056187019533196
 119     0.0072939008739205
 120     0.0064411790766989
 121     0.0041098138444742
 122    -0.0359663598050242
 123    -0.1557216819011351
 124     0.0050216865222991
 125    -0.0547193648641774
 126    -0.0058802067808422
 127     0.0614335664181238
 128     0.0057970588336091
 129     0.0580669564332375
 130     0.0061658874070442
 131    -0.0581298326492417
 132    -0.0055571692130223
 133     0.0125762018019891
 134     0.0029011201758613
 135    -0.0107686283203010
 136    -0.0026766957107089
 137    -0.0106348157518743
 138    -0.0028464818320132
 139     0.0120029776837433
 140     0.0026895581423720
 141    -0.0098741631735623
 142    -0.0012510559425252
 143     0.0151854847170132
 144     0.0029407612604276
 145     0.0121569256441426
 146     0.0014604950846153
 147    -0.0126984757280489
 148    -0.0027405122778470
 149     0.4710506992770974
 150    -0.0733859656365601
 151     0.1115928682689814
 152    -0.0177515590640010
 153     0.0047374677085600
 154    -0.0003887711567204
 155     0.0083036753753564
 156     0.0343766099833102
 157    -0.0026511323390478
 158    -0.2541975074099595
 159    -0.0070733843088543
 160    -0.2872600813300643
 161     0.0283081254960677
 162    -0.0979590559722303
 163    -0.0189303697208949
 164     0.0031994054768385
 165     0.0002650229999688
 166     0.0066631624454414
 167     0.3771233868611412
 168    -0.0864103608902231
 169    -0.0871003586255331
 170     0.0011498920212689
 171     0.3311281706922095
 172     0.0640002546847748
 173     0.0004374825954170
 174    -0.0101632363395999
 175    -0.0208146361647490
 176    -0.1003427019356087
 177    -0.0266496736277304
 178     0.3828495311122911
 179    -0.0599224898891238
 180    -0.2353994277972443
 181    -0.0456884795368158
 182    -0.0065576121082859
 183    -0.0021838490453510
 184     0.0152688033270063
 Sym= 53A
 Ene= -0.102468
 Spin= Alpha
 Occup= 2.000000
  1     0.0900595521791785
  2     0.0110205607897977
  3     0.1542859434781176
  4     0.0196355871486873
  5    -0.0062900047783770
  6     0.0028361331303734
  7    -0.0046931254459398
  8    -0.0026887244280935
  9     0.0089656537830258
 10    -0.1802393182492481
 11    -0.0234183075995878
 12     0.0012568172669237
 13    -0.0000822970119754
 14    -0.0025500384726125
 15     0.0036530298611269
 16    -0.0000063363948253
 17     0.0053234367555667
 18     0.0093160295198588
 19     0.0922728639007909
 20     0.0111829954601385
 21    -0.1555549701083113
 22    -0.0200826203249524
 23    -0.0046844147029275
 24     0.0031554156613756
 25     0.0046459572941164
 26    -0.0026684212292883
 27     0.0090464062228230
 28    -0.0029877847339787
 29    -0.0003665023336525
 30    -0.0010574760329272
 31    -0.0002508354927510
 32    -0.0946566550533555
 33     0.0113816116029277
 34     0.0002061616811408
 35     0.0001064542234291
 36    -0.0499392372209356
 37    -0.0032298413457335
 38     0.0008042751113557
 39    -0.0018079280328155
 40     0.1029008389595259
 41    -0.0286966445947609
 42    -0.0007050406358040
 43     0.0022956418480146
 44    -0.1911750858614101
 45    -0.0416004109896330
 46    -0.0008940500082453
 47    -0.0000778562254499
 48    -0.1153384324853684
 49    -0.0254050836196955
 50    -0.0018259023014439
 51    -0.0013392517639116
 52     0.1991842500984186
 53    -0.0175998964122317
 54     0.0022235040801256
 55    -0.0002859577843877
 56    -0.1357353780121030
 57     0.0043440531601667
 58     0.0048330372994855
 59    -0.0273732764489799
 60     0.1349665523140356
 61    -0.0174099107792445
 62    -0.0005670892605157
 63     0.0034438846006432
 64    -0.1357756089444754
 65     0.0038106853487752
 66    -0.0042733864680701
 67     0.0231810866337889
 68     0.1343875784107114
 69    -0.0015094986184216
 70    -0.0736579749062579
 71    -0.0832842764804558
 72     0.0508578590005518
 73     0.0136928124251669
 74    -0.0282497472566492
 75    -0.0249449713391649
 76    -0.0970665972277795
 77    -0.0017483428640289
 78     0.0737335133146161
 79     0.0821462623362200
 80     0.0503557128833149
 81     0.0136248529151416
 82     0.0307492474319848
 83     0.0274605067446587
 84    -0.0986903207254440
 85    -0.0058842720084263
 86    -0.0871436908608648
 87    -0.0681418060465275
 88    -0.0553791973871246
 89    -0.0279287721399792
 90     0.0120930718292436
 91     0.0216058380585666
 92     0.1005534503010586
 93    -0.0061240915060084
 94     0.0876569425282525
 95     0.0686081221408205
 96    -0.0548724257895184
 97    -0.0268692588151737
 98    -0.0118317602832500
 99    -0.0237790774659328
 100     0.1024420830043569
 101    -0.0155053916381215
 102     0.0005296300569629
 103     0.0003948537712000
 104     0.0507556308591683
 105     0.0277419441071837
 106     0.0010800713573164
 107    -0.0002110672405557
 108     0.0158670439614403
 109    -0.0017694911918667
 110     0.0007202896260603
 111    -0.0008698631415113
 112    -0.0558869603643151
 113    -0.0835362006050994
 114     0.0025310280289168
 115     0.0034931014030595
 116    -0.0236179050085049
 117    -0.0619529328041518
 118     0.0004378748152450
 119    -0.0013490205263134
 120     0.0944766510549857
 121     0.1582235657391122
 122     0.0028051083283202
 123     0.0052431201489215
 124     0.1803232372267486
 125     0.0678760562544213
 126     0.0063572511518248
 127     0.0593092877349851
 128     0.0038832443453117
 129     0.0647933238837303
 130     0.0059933016278126
 131     0.0626783798765870
 132     0.0042715744284994
 133     0.0218960593046267
 134    -0.0003614325580122
 135     0.0364974534759986
 136     0.0012618683441664
 137     0.0222448653998770
 138    -0.0002546480716372
 139     0.0341806267893157
 140     0.0009315760774154
 141     0.0296668948879214
 142     0.0029710604650951
 143     0.0578123297476513
 144     0.0045266840527565
 145     0.0292553755360238
 146     0.0028821667446291
 147     0.0605764790007210
 148     0.0049149885681104
 149    -0.0156721748333925
 150     0.0023041219636446
 151    -0.0055426181088210
 152     0.0007623592374892
 153     0.1530599291218061
 154    -0.0250550744787957
 155    -0.0002425292635996
 156    -0.0011512715448477
 157    -0.1041177591352584
 158     0.2022975327775386
 159    -0.0227466280545993
 160    -0.3247454590272772
 161     0.0401190614535191
 162    -0.0095418962171259
 163    -0.0047626152814970
 164    -0.0095213089918676
 165     0.0054424373529588
 166     0.0193908915916756
 167    -0.3975462937666451
 168     0.0498297876651662
 169     0.0037544078970223
 170    -0.0000210096884931
 171    -0.0226486365790120
 172    -0.0074631444738256
 173    -0.0000451970391261
 174    -0.0106822368819441
 175     0.0203440221880772
 176     0.1964773340370486
 177    -0.0219269876768855
 178     0.3220658482953233
 179    -0.0387457213052792
 180    -0.0030274551298852
 181    -0.0034793417649829
 182     0.0096775122450214
 183     0.0055854991437212
 184     0.0189029597227791
 Sym= 54A
 Ene= -0.100477
 Spin= Alpha
 Occup= 2.000000
  1    -0.0443092252703323
  2    -0.0125000490825745
  3    -0.1048924838543149
  4    -0.0206644871246116
  5    -0.0826444758425559
  6    -0.0155995339207295
  7    -0.0023716686586198
  8    -0.0015026901547318
  9    -0.0038893916578823
 10    -0.0663226094968502
 11    -0.0126201027950187
 12     0.1243905696169270
 13    -0.0113060064652244
 14     0.0457964335341995
 15     0.0088060319724596
 16    -0.0009825218566963
 17    -0.0015429567297933
 18     0.0023984694074877
 19     0.1475840390399865
 20    -0.0053392300762863
 21     0.0269665193457307
 22    -0.0144973216904223
 23     0.0349079899712335
 24     0.0068652106587594
 25    -0.0015525717220316
 26    -0.0003445044093639
 27     0.0017297445537379
 28    -0.0410574905619580
 29    -0.0087986141925514
 30    -0.0595255620269572
 31    -0.0136507551197536
 32    -0.0001385526080330
 33     0.0000488395762512
 34     0.0205096609355316
 35     0.0143261181134931
 36    -0.0002069810371233
 37    -0.0000109556726337
 38     0.1463095801997268
 39    -0.0186154390573728
 40    -0.0003208149927981
 41     0.0001688506448471
 42    -0.1358912536272350
 43     0.0034229150253780
 44     0.0009104601512449
 45     0.0001542548028951
 46    -0.0413979120171478
 47     0.0041898819545619
 48     0.0003740091256297
 49     0.0000775930547848
 50    -0.1953962226292310
 51     0.0376516066675437
 52    -0.0008930497496232
 53     0.0044875750333538
 54     0.1053067032143372
 55     0.0115175600529009
 56     0.0121294684170284
 57    -0.0103333495874931
 58    -0.0139040540146901
 59    -0.0148637254534352
 60    -0.0163209328340688
 61    -0.0043082606430406
 62     0.1053556848833799
 63     0.0115618190376941
 64    -0.0111170357293938
 65     0.0102627446350820
 66    -0.0138017489685805
 67    -0.0151497900746201
 68     0.0152997263036635
 69     0.0140420692286107
 70    -0.0346662837260284
 71    -0.0541123527576672
 72     0.0167108227944791
 73     0.0107107166906594
 74    -0.0141552494539536
 75     0.1142481917016956
 76    -0.0052027195061412
 77    -0.0140921939345581
 78    -0.0350602884102427
 79    -0.0546151364438858
 80    -0.0168548416410889
 81    -0.0107624181771610
 82    -0.0143695627057458
 83     0.1140589539881206
 84     0.0063707416538115
 85    -0.0039988272653803
 86    -0.0260062629630197
 87    -0.0051656609149522
 88    -0.0084962331942716
 89    -0.0090183437915818
 90    -0.0122902057243486
 91    -0.1023944988515018
 92     0.0034364762715121
 93     0.0040998657675206
 94    -0.0265657496053268
 95    -0.0055056165570182
 96     0.0086526088562246
 97     0.0092110812377672
 98    -0.0122292898618593
 99    -0.1022789576536972
 100    -0.0046299513797590
 101    -0.0000244344098381
 102     0.0382003891587898
 103     0.0172408314645940
 104     0.0000910037235427
 105    -0.0001063139791910
 106     0.1906817631783094
 107    -0.0206695442467572
 108     0.0002332573363741
 109     0.0001019496833775
 110     0.0828900468644378
 111     0.0570260939401547
 112    -0.0000683900181143
 113     0.0004227588211623
 114     0.1660076871705496
 115    -0.0412369493589048
 116    -0.0001119515730639
 117    -0.0002397675557011
 118     0.0645921595365304
 119     0.0448040508168880
 120     0.0003014508142716
 121    -0.0004798702947488
 122     0.0856943424077321
 123    -0.0221503797169364
 124    -0.0003791232737768
 125     0.0071030890291948
 126     0.0021017812678822
 127    -0.0184388678470412
 128    -0.0065628211478801
 129    -0.0076415430792276
 130    -0.0021537338404715
 131     0.0180018442400311
 132     0.0065394168116219
 133    -0.0097999641088150
 134     0.0016313276373533
 135     0.0818839455967076
 136     0.0106360686893112
 137     0.0097623279875226
 138    -0.0016163901168081
 139    -0.0823831270123833
 140    -0.0106595270999297
 141     0.0148479073897769
 142     0.0013617615492743
 143    -0.0829831575110449
 144    -0.0089544996794129
 145    -0.0149486851308933
 146    -0.0013752236641965
 147     0.0823283975361463
 148     0.0089002534466731
 149    -0.0706963499189171
 150     0.0115870049947367
 151     0.2752430169783893
 152    -0.0468641536254044
 153    -0.0000955893431570
 154     0.0001413744021057
 155     0.0534574854500739
 156    -0.0140593141146984
 157     0.0003347190134451
 158    -0.2629857500304067
 159     0.0287837140154648
 160     0.2352638568312290
 161    -0.0669709812398308
 162     0.2495215807478336
 163     0.0485165608377551
 164    -0.0071997621635101
 165     0.0038267253341956
 166    -0.0136622979026483
 167    -0.0841034931910472
 168     0.0190744546535295
 169    -0.4011392502743645
 170    -0.0285958488039435
 171    -0.0648992862082319
 172    -0.0123614222675217
 173    -0.0012628506434906
 174     0.0021547950361791
 175     0.0034582058842362
 176     0.3776444343888936
 177    -0.0101916930759407
 178     0.0654635777008858
 179    -0.0577166107050608
 180    -0.1863194670051860
 181    -0.0360791933198131
 182    -0.0057616639821304
 183    -0.0022955594030905
 184     0.0099038541514544
 Sym= 55A
 Ene= -0.098363
 Spin= Alpha
 Occup= 2.000000
  1    -0.0441763430553303
  2     0.1781472203614576
  3    -0.0939952846125536
  4     0.3000384076222237
  5     0.4477570327883273
  6    -0.0251411206849262
  7    -0.0011694761934192
  8    -0.0004759937942978
  9    -0.0069782608190948
 10     0.0950082428123491
 11    -0.3385823728468387
 12    -0.0001359049868596
 13    -0.0003558132395965
 14     0.4390297138298190
 15    -0.0261057794756263
 16    -0.0000250798552086
 17     0.0013871681504952
 18    -0.0067543410789446
 19    -0.0443968697502453
 20     0.1783005298683314
 21     0.0941343382462665
 22    -0.3010161970427694
 23     0.4486828005738501
 24    -0.0250250469320771
 25     0.0011461589797706
 26    -0.0004913316104064
 27    -0.0069834102432162
 28    -0.0011195021708224
 29     0.0026696682235906
 30     0.0000445021877788
 31    -0.0001644784365666
 32    -0.0704608689817284
 33     0.0576072661979418
 34     0.0000766312472238
 35     0.0000072483477591
 36    -0.0289479016062277
 37    -0.0016566013927450
 38     0.0000396985822216
 39     0.0000377465125066
 40     0.0057018873034844
 41     0.0004146901649300
 42    -0.0000132913723540
 43    -0.0000008745511241
 44     0.0006000847140905
 45    -0.0007527443274894
 46    -0.0000859983670589
 47    -0.0001457804290702
 48    -0.0047446175212513
 49    -0.0006663346561594
 50    -0.0001631921589877
 51    -0.0000777434089942
 52     0.0000053603406538
 53     0.0001999999194163
 54    -0.0012532215591646
 55    -0.0013261760434716
 56    -0.0017906052324526
 57    -0.0005640666858569
 58    -0.0010682010800668
 59     0.0006359626685238
 60     0.0020942408960291
 61     0.0001711774035183
 62     0.0013917898380633
 63     0.0012500430885790
 64    -0.0017585223850044
 65    -0.0005647658465232
 66     0.0011744482629229
 67    -0.0006479385476040
 68     0.0020752481575236
 69    -0.0019763648975333
 70     0.0003461305202802
 71     0.0003663510044771
 72     0.0078191833936760
 73     0.0003832495329294
 74    -0.0004000670354915
 75    -0.0000215704673269
 76     0.0020601603725096
 77    -0.0019242863644665
 78    -0.0005874106897040
 79    -0.0003668284081637
 80     0.0077357145187616
 81     0.0003857657265764
 82     0.0004780313791276
 83     0.0002968259595421
 84     0.0020110901874425
 85     0.0017608752091426
 86     0.0021067615145731
 87    -0.0017197430626369
 88    -0.0078699426207001
 89    -0.0003080188983039
 90     0.0000872956157026
 91     0.0003912130253735
 92    -0.0020122192732562
 93     0.0016019598527724
 94    -0.0018192113094876
 95     0.0015823178664467
 96    -0.0076888143338518
 97    -0.0002898607308495
 98    -0.0002353384102152
 99    -0.0006033173822223
 100    -0.0019762156774585
 101    -0.0056468218645150
 102     0.0000301139117147
 103     0.0002339068220575
 104     0.0172550629709493
 105     0.0001425413883166
 106     0.0001288878682365
 107     0.0000679196118883
 108     0.0031749297549447
 109     0.0057064699893934
 110     0.0003640156423760
 111    -0.0004309530438858
 112    -0.0180154333252967
 113     0.0004490977283419
 114     0.0001477863268545
 115     0.0000413490782094
 116    -0.0030085849412894
 117    -0.0343690545513355
 118     0.0003515666063914
 119    -0.0006333801345113
 120     0.0443798436412190
 121     0.0023855338581859
 122     0.0001114515368646
 123     0.0000324818065316
 124     0.0043464856215820
 125     0.0004783748887695
 126    -0.0000986906144548
 127     0.0013238227758023
 128     0.0001529159880126
 129     0.0005117319614464
 130    -0.0000943364989884
 131     0.0013057712105833
 132     0.0001587556518726
 133     0.0039035998892563
 134     0.0003172630229253
 135    -0.0010070600699482
 136    -0.0000931574002014
 137     0.0037250896970996
 138     0.0002969803795107
 139    -0.0012378532612471
 140    -0.0001164126564638
 141     0.0036441113983460
 142     0.0003146371644864
 143    -0.0009675047581980
 144    -0.0000701157847040
 145     0.0037806777948225
 146     0.0003068580274638
 147    -0.0007062905519511
 148    -0.0000421365377924
 149     0.0000011716655934
 150     0.0000056355853049
 151     0.0000359421321550
 152     0.0000038573603568
 153     0.0050350504787598
 154     0.0010293638855874
 155     0.0000269800764964
 156     0.0000058096403238
 157    -0.0017231423065607
 158     0.0040680720843037
 159     0.0019732280379910
 160    -0.0073965850675811
 161    -0.0033539959042885
 162     0.0076162902819149
 163    -0.0003375452696927
 164    -0.0002354887988810
 165     0.0001351464160717
 166     0.0004267653201266
 167    -0.0084771715147578
 168    -0.0038634693694136
 169    -0.0002272777176396
 170     0.0000153827935868
 171     0.0075634064295703
 172    -0.0003477071899592
 173    -0.0000010061407796
 174    -0.0002713070410976
 175     0.0004314179738436
 176     0.0044077811631812
 177     0.0019722464631627
 178     0.0075280386415511
 179     0.0033830212761810
 180     0.0075693317682991
 181    -0.0003473811026682
 182     0.0002331964681207
 183     0.0001349624228858
 184     0.0004315712512200
 Sym= 56A
 Ene= -0.097635
 Spin= Alpha
 Occup= 2.000000
  1     0.0018426313883329
  2     0.0037876313993014
  3     0.0028447452058805
  4     0.0064248464259806
  5     0.0072496400958184
  6    -0.0005319520007425
  7    -0.0002300954192980
  8    -0.0001275797515863
  9     0.0001156437191302
 10    -0.0034121080692249
 11    -0.0072455835929358
 12    -0.0000636748552810
 13    -0.0000057856037541
 14     0.0070897230307530
 15    -0.0005432236862557
 16    -0.0000001882237331
 17     0.0002653107198800
 18     0.0001252584878491
 19     0.0017648362025970
 20     0.0037917918602936
 21    -0.0028403873644257
 22    -0.0064436580169882
 23     0.0072527772165194
 24    -0.0005317265473687
 25     0.0002305516416334
 26    -0.0001280672817483
 27     0.0001139725140763
 28    -0.0000486474169517
 29     0.0000563208177283
 30     0.0000023393600489
 31    -0.0000094333121477
 32    -0.0068566635298107
 33     0.0009462043550199
 34    -0.0000059143802343
 35    -0.0000084530888458
 36    -0.0021184549933669
 37    -0.0004899005811986
 38    -0.0000566666450768
 39    -0.0000512996255171
 40     0.0196911438898826
 41    -0.0136717539439622
 42     0.0000440350776524
 43     0.0000828400627934
 44    -0.0602501150418281
 45    -0.0098181320359274
 46    -0.0000078573524201
 47    -0.0000043132771501
 48    -0.0239634554183501
 49    -0.0046022260053588
 50     0.0000326018544288
 51    -0.0001121653982275
 52     0.0598060649200400
 53    -0.0062983372183076
 54     0.0037285925143991
 55     0.0008773356380966
 56    -0.0335901093804121
 57     0.0022999980405542
 58     0.0049883844002805
 59    -0.0098897344159675
 60     0.0327103993668910
 61    -0.0062870795484192
 62    -0.0038054791906075
 63    -0.0007866383681253
 64    -0.0335755748459390
 65     0.0022594031059879
 66    -0.0049383365450765
 67     0.0097453002279083
 68     0.0326677398320522
 69     0.0004802271992561
 70    -0.0049661964385828
 71    -0.0097847644043676
 72     0.0073926483529907
 73    -0.0002151448568534
 74    -0.0060885580330396
 75    -0.0057537393754215
 76    -0.0454844691492218
 77     0.0004894579867370
 78     0.0050094705857416
 79     0.0098080737849111
 80     0.0073989516725529
 81    -0.0002029316776184
 82     0.0062577645446728
 83     0.0057540434344133
 84    -0.0455629142574454
 85    -0.0020332314325186
 86    -0.0090486839710669
 87    -0.0060799646958382
 88    -0.0084673904340498
 89    -0.0048774063585615
 90     0.0006300969294969
 91     0.0019865133628257
 92     0.0466304788953796
 93    -0.0020477814932690
 94     0.0091004234529029
 95     0.0061041697101973
 96    -0.0084586363320381
 97    -0.0048494738799613
 98    -0.0006780997227218
 99    -0.0019887676772682
 100     0.0467086566098740
 101    -0.0014111498520946
 102    -0.0000050100325430
 103     0.0000034273738636
 104     0.0038767624591412
 105     0.0048372718378120
 106    -0.0000610045724171
 107     0.0000493186101061
 108    -0.0266517802194120
 109    -0.0021564782777697
 110    -0.0000235685422919
 111    -0.0000665218543827
 112    -0.0046688702316851
 113    -0.0252174195029039
 114    -0.0000132960241056
 115     0.0001834798774584
 116     0.0241843910025005
 117    -0.0022419010333187
 118    -0.0000224470904100
 119    -0.0000734025471766
 120     0.0047492122709137
 121     0.0184381043163693
 122     0.0000488133377146
 123     0.0002003440982896
 124     0.0037723435406338
 125     0.0170729399099127
 126     0.0015459628068581
 127     0.0139920854744792
 128     0.0006636995330877
 129     0.0169742385224490
 130     0.0015352668418854
 131     0.0140937124027297
 132     0.0006716290882424
 133     0.0030294848779159
 134    -0.0002842110758219
 135     0.0197902325860370
 136     0.0010785011138954
 137     0.0030290811866779
 138    -0.0002782874492660
 139     0.0197328024789652
 140     0.0010714677921365
 141     0.0047104838990364
 142     0.0005146311071611
 143     0.0241402287565678
 144     0.0018834018187009
 145     0.0047155600110201
 146     0.0005131770040640
 147     0.0242241578981441
 148     0.0018953512139843
 149    -0.0003093764108512
 150    -0.0005563426403394
 151    -0.0003329042678706
 152    -0.0006296897038469
 153     0.0120075147482619
 154    -0.0534452016940513
 155    -0.0000251578073462
 156    -0.0000056651599524
 157    -0.0124437266928841
 158    -0.0700138296622515
 159    -0.1642727166375214
 160     0.1293239807476474
 161     0.2805742494313808
 162    -0.4394864834368454
 163     0.0257760180330489
 164     0.0007202488952437
 165    -0.0004489539890921
 166    -0.0093387416313032
 167     0.1459429027381597
 168     0.3239944140823478
 169     0.0032251730258494
 170    -0.0015416724819983
 171    -0.4383822718032259
 172     0.0258776014719648
 173    -0.0000838689890092
 174     0.0007832422481355
 175    -0.0093585167735285
 176    -0.0746965503420265
 177    -0.1649564911386923
 178    -0.1309794742484265
 179    -0.2848405751174301
 180    -0.4428467304839171
 181     0.0254000984831155
 182    -0.0007885895457490
 183    -0.0003920503322633
 184    -0.0094197141251935
 Sym= 57A
 Ene= -0.095986
 Spin= Alpha
 Occup= 2.000000
  1    -0.6169938747230159
  2    -0.0741990319970842
  3     0.3376487340187260
  4     0.0525062154342177
  5     0.0083917592360561
  6     0.0002468920627939
  7     0.0004649862540851
  8    -0.0008086181562751
  9    -0.0004827377691989
 10     0.0793907134807495
 11    -0.1122429756517279
 12     0.3761839016832396
 13     0.0472043302005028
 14     0.1903286756242306
 15     0.0379709302910382
 16     0.0002979358365928
 17    -0.0034881826505483
 18    -0.0082064839920042
 19    -0.2274402431144381
 20    -0.0906041948800199
 21    -0.2359646867258103
 22     0.0712131788395859
 23    -0.1814621748240712
 24    -0.0397919690164436
 25     0.0027075036400503
 26    -0.0022467739794524
 27     0.0083160716316246
 28    -0.1370327878965643
 29    -0.1711635370404971
 30     0.0831112572004100
 31     0.1052164472534024
 32    -0.0007274417223018
 33     0.0006676004750541
 34     0.0215130965119945
 35    -0.0301136870154807
 36    -0.0002343389830164
 37    -0.0000117438961390
 38    -0.0000304669010015
 39    -0.0043414953238943
 40     0.0000374925273550
 41     0.0000047666242243
 42     0.0006915095818673
 43     0.0118242355243677
 44     0.0000152549284531
 45    -0.0000031423657197
 46     0.0044613230945947
 47    -0.0140091560602949
 48    -0.0000310377291142
 49    -0.0000024176314143
 50    -0.0069783145257384
 51    -0.0286060548880231
 52    -0.0000077651221455
 53    -0.0006936624117690
 54     0.0004028754470763
 55     0.0023124062197801
 56    -0.0013146906284217
 57     0.0036694450553412
 58     0.0021263883248160
 59    -0.0113651763965278
 60     0.0036121115163154
 61     0.0006974720587792
 62     0.0004278014313895
 63     0.0023325054116909
 64     0.0013025178926397
 65    -0.0036771235366432
 66     0.0021464183101380
 67    -0.0113791978239570
 68    -0.0035944682922205
 69    -0.0065458760192345
 70    -0.0105843062475946
 71     0.0115316509846374
 72     0.0109050929526183
 73    -0.0011448243506541
 74     0.0217030924338098
 75     0.0118609268314092
 76     0.0055347199321961
 77     0.0065142322069247
 78    -0.0105985013904817
 79     0.0115227643441382
 80    -0.0107877877459870
 81     0.0011491406396609
 82     0.0217059193209214
 83     0.0118634497810323
 84    -0.0054896614966186
 85     0.0207423229785152
 86     0.0238263837742022
 87    -0.0253223424413461
 88    -0.0231098410082269
 89    -0.0017000359631861
 90    -0.0102090786745042
 91    -0.0162259511573679
 92    -0.0041510257822094
 93    -0.0207144396519745
 94     0.0237853546739587
 95    -0.0253142623972476
 96     0.0229880186538925
 97     0.0016986461282440
 98    -0.0102136092876503
 99    -0.0162329560507594
 100     0.0041099674532015
 101    -0.0000480302494199
 102    -0.0208906477437813
 103     0.0356369932600556
 104     0.0001426979056609
 105     0.0000001936992339
 106     0.0051241568609803
 107     0.0200936956797430
 108     0.0000265064563270
 109     0.0000369774880629
 110     0.0870882589379872
 111    -0.1199919201159753
 112    -0.0001504383952229
 113     0.0000064859754590
 114     0.0002030199559294
 115     0.0278952080349969
 116    -0.0000324507885481
 117    -0.0002912968891227
 118     0.1035221604911510
 119    -0.1476478490442563
 120     0.0003636307541590
 121     0.0000197689801667
 122    -0.0000824944325651
 123     0.0242504152802474
 124     0.0000316581850774
 125     0.0047269367142349
 126    -0.0001747184795779
 127    -0.0065442384295317
 128    -0.0008150841732794
 129    -0.0047273505877551
 130     0.0001723463289873
 131     0.0065590309695334
 132     0.0008173534275965
 133     0.0205033035663150
 134     0.0018145085286355
 135     0.0181862820143599
 136     0.0020185031697393
 137    -0.0204485890488733
 138    -0.0018098372142332
 139    -0.0182116693795168
 140    -0.0020205787199279
 141    -0.0153490087755082
 142     0.0012574789765672
 143    -0.0204124270838716
 144    -0.0022679264383339
 145     0.0154023413686070
 146    -0.0012517851971765
 147     0.0203940991375022
 148     0.0022665573613412
 149    -0.0067570137611729
 150     0.0062682934258667
 151     0.0002247456041029
 152    -0.0001362651004962
 153     0.0000542221257416
 154    -0.0000049235492997
 155    -0.0000408883928749
 156     0.0047996876589487
 157    -0.0000126324464394
 158    -0.0330384710284848
 159     0.0019938102257501
 160    -0.0274939570642277
 161    -0.0006262819698732
 162     0.0015279491203319
 163     0.0005233638429747
 164    -0.0001361770612916
 165    -0.0002429981899453
 166     0.0003158132536861
 167     0.0149126836096801
 168     0.0031875797722094
 169     0.0001913762935953
 170    -0.0000654480400995
 171    -0.0029959696475046
 172    -0.0009337757413966
 173     0.0000026707143287
 174    -0.0000168926703186
 175    -0.0006383878392742
 176    -0.0335269969297202
 177     0.0019593672304311
 178     0.0280900158674737
 179     0.0004238263644107
 180     0.0011398562443920
 181     0.0004429068140468
 182     0.0001291355684774
 183    -0.0002494740231742
 184     0.0003077146573453
 Sym= 58A
 Ene= -0.095394
 Spin= Alpha
 Occup= 2.000000
  1    -0.0153129306463426
  2     0.0872693655799239
  3    -0.0206001923091753
  4     0.1477394806464929
  5     0.3055679175044994
  6     0.0593110947436828
  7     0.0051432801411855
  8     0.0031766055671431
  9    -0.0098287935913833
 10    -0.0065628896277796
 11     0.0920027134866285
 12     0.5324975036784412
 13     0.1067106355877350
 14    -0.1651736258503857
 15    -0.0305543129707135
 16     0.0042511167055149
 17     0.0032030647358157
 18     0.0051313697122063
 19     0.4875884561137206
 20     0.0513201098088538
 21     0.2578509737077759
 22     0.1303255275448510
 23    -0.1500719525859425
 24    -0.0278104639356395
 25     0.0047040207340112
 26     0.0025088285425658
 27     0.0048302188509828
 28     0.0884557358885663
 29     0.1242553055888489
 30     0.1427548319342968
 31     0.2040713979471134
 32     0.0004830999634791
 33    -0.0004253350718010
 34     0.0095287887123595
 35     0.0039803071581341
 36     0.0002146348870141
 37     0.0000076905481194
 38     0.0127226371540572
 39     0.0170520825639629
 40    -0.0000390941919586
 41     0.0000009173780357
 42    -0.0143590476157040
 43    -0.0392931055178540
 44     0.0000064428285358
 45     0.0000053403314233
 46     0.0453601396807613
 47     0.0309776894419566
 48     0.0000283512405687
 49     0.0000011804340499
 50     0.0451303734217145
 51     0.0670446655967372
 52    -0.0000165684142183
 53    -0.0019618635607587
 54    -0.0119320554903418
 55    -0.0166333723016430
 56     0.0078635468013416
 57    -0.0066458484262961
 58    -0.0248937152984118
 59     0.0355579534376934
 60    -0.0122465938074832
 61     0.0019614870660818
 62    -0.0119377207584370
 63    -0.0166507286121806
 64    -0.0078288280427036
 65     0.0066496159821421
 66    -0.0248892956120297
 67     0.0355671878488344
 68     0.0122195261313747
 69     0.0003536007617557
 70     0.0119500368760650
 71     0.0143804476064016
 72     0.0015668101581009
 73     0.0045028060986805
 74    -0.0455789777954546
 75    -0.0491754533010068
 76    -0.0185362792348579
 77    -0.0003236179846295
 78     0.0119415585755336
 79     0.0143734837447981
 80    -0.0016625862148940
 81    -0.0045038415801905
 82    -0.0455851053725527
 83    -0.0491829145110060
 84     0.0185306789374087
 85     0.0008904191324364
 86    -0.0260253383412594
 87    -0.0242671907717746
 88    -0.0022070506189607
 89     0.0051009647315106
 90     0.0313628109267131
 91     0.0442223941137823
 92     0.0140795136458355
 93    -0.0009145500079977
 94    -0.0260120440069650
 95    -0.0243049834083406
 96     0.0022955731419260
 97    -0.0050988947052158
 98     0.0313695504218635
 99     0.0442304364459266
 100    -0.0140794714853099
 101     0.0000423644422998
 102    -0.0435597697988051
 103    -0.0269277893419585
 104    -0.0001314395589442
 105    -0.0000007287129155
 106    -0.0289860662583747
 107    -0.0449626019314192
 108    -0.0000149980371109
 109    -0.0000437058635062
 110     0.0253488094300115
 111     0.0074604063421432
 112     0.0001302139206240
 113     0.0000003123206675
 114    -0.0335969921970961
 115    -0.0613143290526910
 116     0.0000216061730498
 117     0.0002534871835538
 118     0.0570994102821731
 119     0.0272432002237813
 120    -0.0003171606845759
 121    -0.0000247824174377
 122    -0.0301550811838541
 123    -0.0557090573528862
 124    -0.0000319763792308
 125    -0.0218966090752642
 126    -0.0034086093703869
 127     0.0225143415952438
 128     0.0034368520866260
 129     0.0218885060291434
 130     0.0034090375191038
 131    -0.0225372631916458
 132    -0.0034392096096608
 133     0.0035325190498367
 134     0.0013266903112051
 135    -0.0521990003866983
 136    -0.0056404349042631
 137    -0.0035808790704297
 138    -0.0013300991647773
 139     0.0522130647918356
 140     0.0056418522874750
 141    -0.0022758185907032
 142    -0.0001274118625271
 143     0.0592856200779636
 144     0.0066449138152714
 145     0.0022256692684294
 146     0.0001258113966144
 147    -0.0592881424918471
 148    -0.0066449119560999
 149     0.0270846360878107
 150    -0.0233905509038655
 151     0.0137751620298462
 152    -0.0120197632273174
 153    -0.0000705478809095
 154     0.0000401014906039
 155    -0.0055462064450146
 156    -0.0101999900423827
 157     0.0000147051662320
 158     0.1288018412395987
 159    -0.0098116928515765
 160     0.0743712231241638
 161    -0.0050184120048805
 162    -0.0013136598906370
 163    -0.0004139493562588
 164     0.0003079356422449
 165     0.0004778555708871
 166    -0.0000590241177645
 167    -0.0285740153924257
 168    -0.0166889169517173
 169     0.0701601489181136
 170    -0.0049953364685228
 171     0.0255441563544011
 172     0.0055024811437822
 173     0.0002792233166482
 174    -0.0003851173537734
 175     0.0017613943705833
 176     0.0546666112592630
 177    -0.0127090686087981
 178    -0.0639617645133227
 179    -0.0099549949905031
 180    -0.0227964533795754
 181    -0.0052259665533427
 182    -0.0004433955748524
 183     0.0000757982113219
 184    -0.0016476653370681
 Sym= 59A
 Ene= -0.094977
 Spin= Alpha
 Occup= 2.000000
  1     0.0671058122940351
  2     0.0483754248314487
  3    -0.0284366590258626
  4     0.0443809960099694
  5     0.1134637455599115
  6     0.0211175845810987
  7     0.0013731605007578
  8     0.0021278955868104
  9    -0.0031637913005966
 10     0.0098063809397540
 11     0.0574712444119739
 12     0.1113239872105012
 13     0.0296697742126012
 14    -0.1039557584476782
 15    -0.0183374059191196
 16     0.0016732365996185
 17     0.0019998777978793
 18     0.0028129901109861
 19     0.1642267800807516
 20     0.0382936085543302
 21     0.0930387975872389
 22     0.0331227168718027
 23    -0.0151071958557653
 24    -0.0022196649808848
 25     0.0016300744388004
 26     0.0023567054081242
 27     0.0004054800039121
 28     0.0453096067305319
 29     0.0721056390465071
 30     0.0322648072255374
 31     0.0525754107655400
 32     0.0002689499404554
 33    -0.0002617991726142
 34    -0.0018902113543362
 35    -0.0031081895247989
 36     0.0001383884716997
 37     0.0000096948654508
 38     0.0018789828567734
 39    -0.0849793813200203
 40     0.0000843727245829
 41    -0.0000996978325866
 42    -0.0137059623685645
 43     0.1230481723266561
 44    -0.0003678356107822
 45    -0.0000530316568150
 46    -0.0044156018381454
 47     0.0180865008318564
 48    -0.0001111004533868
 49    -0.0000133875539009
 50    -0.0327552232612229
 51    -0.1718809509424496
 52     0.0003749764036996
 53    -0.0104223369262523
 54     0.0020397230000845
 55     0.0755011329118506
 56    -0.0036043865041657
 57     0.0246550095550430
 58    -0.0016988822011336
 59    -0.1114737139529865
 60     0.0262038181104556
 61     0.0103364758068806
 62     0.0019528829006304
 63     0.0754859970740052
 64     0.0032335036258235
 65    -0.0246113296932380
 66    -0.0018064451784837
 67    -0.1113572334622975
 68    -0.0258387173210205
 69     0.0041066779190832
 70     0.0268554819175496
 71    -0.0051353119336481
 72     0.0048659499209198
 73    -0.0073719259043024
 74     0.1453453220256357
 75     0.0566209771893639
 76     0.0352378776541430
 77    -0.0040812845309185
 78     0.0269164590987541
 79    -0.0050181776949748
 80    -0.0048602650664823
 81     0.0073289082966586
 82     0.1453912807405897
 83     0.0566974612821145
 84    -0.0358728315971317
 85     0.0003597602726815
 86    -0.0033955603834795
 87     0.0071066368513248
 88    -0.0018863188110445
 89    -0.0134510881202308
 90    -0.0389691338118572
 91    -0.0965033097304192
 92    -0.0284635800236112
 93    -0.0003998111424798
 94    -0.0032674578789828
 95     0.0071626130607518
 96     0.0018686379379203
 97     0.0134273453462123
 98    -0.0389769011430142
 99    -0.0964897305613383
 100     0.0291439726143075
 101     0.0000203350566472
 102    -0.0083676566355692
 103    -0.0181135342018067
 104    -0.0000679197920278
 105     0.0000045588400165
 106     0.0237549970723196
 107     0.1060893726904729
 108    -0.0002780440221374
 109    -0.0000445985134936
 110    -0.0124981106334707
 111    -0.0199930031516750
 112     0.0000587234731035
 113    -0.0001407773043638
 114    -0.0152484092857127
 115     0.2011428012172883
 116     0.0002115775973151
 117     0.0001599067087947
 118    -0.0050654537596151
 119    -0.0092099620565825
 120    -0.0001953079759975
 121    -0.0000329462534188
 122    -0.0166577476173133
 123     0.1938831174239173
 124    -0.0002358739546291
 125     0.0757368411699965
 126     0.0084149077696055
 127    -0.0804336429447979
 128    -0.0091197322136505
 129    -0.0755549310130798
 130    -0.0083965868991397
 131     0.0805928575235944
 132     0.0091263763399151
 133    -0.0109444324265083
 134    -0.0037905526819726
 135     0.1027387436130376
 136     0.0127349906040463
 137     0.0109412810918233
 138     0.0037841161244853
 139    -0.1024638298929648
 140    -0.0127193695557455
 141     0.0097336306728946
 142     0.0013493231578354
 143    -0.1129744645333419
 144    -0.0131236081650014
 145    -0.0097169762316160
 146    -0.0013456141610811
 147     0.1133157497157739
 148     0.0131504257272027
 149    -0.1378202255067345
 150     0.1213558465656556
 151     0.0140043178050502
 152    -0.0118898159023591
 153    -0.0002801555728241
 154    -0.0001388161797109
 155    -0.0029449485089198
 156     0.0330550533767791
 157     0.0000598410216951
 158    -0.3672514762119897
 159     0.0711166036856167
 160    -0.2624305649040953
 161    -0.0240154145084837
 162     0.0960076447360247
 163     0.0196245654817487
 164    -0.0017039877774461
 165     0.0005135630810398
 166     0.0044669558737789
 167     0.0807278164154588
 168     0.0985122924101809
 169     0.0477379980598012
 170    -0.0058366491004493
 171    -0.1663939830819089
 172    -0.0331109921592339
 173     0.0000436152686258
 174     0.0030139591220350
 175    -0.0078583199126906
 176    -0.4191591447404929
 177     0.0681087766932269
 178     0.2826466620229580
 179     0.0066377800972280
 180     0.0668146986608391
 181     0.0138104128085632
 182     0.0012229450552780
 183     0.0002153036959713
 184     0.0032062855219972
 Sym= 60A
 Ene= -0.093865
 Spin= Alpha
 Occup= 2.000000
  1     0.0051074333982835
  2     0.0133771428494304
  3     0.0107435027576437
  4     0.0240080055351752
  5     0.0476627967385328
  6     0.0077214165255188
  7     0.0007365195422544
  8     0.0003912289742231
  9    -0.0010930791818111
 10     0.0060574364828262
 11     0.0135230995666377
 12     0.0309404754790676
 13     0.0166595142664801
 14    -0.0238199873384771
 15    -0.0037658767865197
 16     0.0014826869904919
 17     0.0004229333109056
 18     0.0005443808929425
 19     0.0246354093267769
 20     0.0069884405791094
 21     0.0206280650542988
 22     0.0207641340596666
 23    -0.0246694223482751
 24    -0.0038818153001298
 25     0.0010984159596695
 26     0.0010592564048616
 27     0.0005607220134145
 28     0.0052390042140192
 29     0.0144993813418702
 30     0.0087209780553170
 31     0.0255526527677732
 32    -0.0000902091965983
 33    -0.0000455630262491
 34    -0.0048612043157233
 35    -0.0027655670223987
 36    -0.0000019264944050
 37    -0.0000274622609529
 38    -0.0431529881339352
 39     0.0147531235432276
 40     0.0006045919064012
 41    -0.0006317437678697
 42     0.0459301379309475
 43    -0.0149326263049450
 44    -0.0023797158267695
 45    -0.0003314484657758
 46     0.0050223774905704
 47    -0.0073031885972668
 48    -0.0007671539505611
 49    -0.0001278438977187
 50     0.0444954271735821
 51     0.0135388873473489
 52     0.0022842421377837
 53     0.0004896837265562
 54    -0.0257815574899477
 55    -0.0117224477290888
 56    -0.0041213286026577
 57    -0.0004587976715872
 58     0.0128308182644708
 59     0.0160964377165563
 60     0.0020908370035627
 61    -0.0009958480128207
 62    -0.0262857298737804
 63    -0.0118245488438998
 64     0.0017913426826148
 65     0.0006524850681049
 66     0.0122107262425988
 67     0.0169311901504014
 68     0.0001462246936626
 69    -0.0044025283277044
 70     0.0044804752398334
 71     0.0130014693258731
 72    -0.0050418079830058
 73    -0.0010088774140522
 74    -0.0219756961218681
 75    -0.0284077607887650
 76     0.0007711302650360
 77     0.0044429354192287
 78     0.0046641769815191
 79     0.0135278801865202
 80     0.0054583791441530
 81     0.0007434632267963
 82    -0.0216158178219324
 83    -0.0280665379825046
 84    -0.0050159995632707
 85     0.0008040116252999
 86     0.0098749833392059
 87     0.0035692130320095
 88     0.0025408414483335
 89    -0.0010857487110106
 90     0.0046734528108439
 91     0.0464532817774671
 92    -0.0037292922262910
 93    -0.0009451905317572
 94     0.0103414546583194
 95     0.0038581830870404
 96    -0.0030235973303684
 97     0.0009170854451785
 98     0.0047976699131257
 99     0.0465738375193207
 100     0.0080581591226060
 101    -0.0000331291711232
 102    -0.0042921512553162
 103     0.0000758378810620
 104     0.0000724692858247
 105     0.0000106360750861
 106    -0.0556263199536796
 107    -0.0156540062269542
 108    -0.0019153975643889
 109    -0.0000790780822421
 110    -0.0232159250409968
 111    -0.0130159782112874
 112    -0.0001013611045971
 113    -0.0008486725440913
 114     0.0018023451057018
 115     0.0009873428934947
 116     0.0018250846532799
 117     0.0000060236989717
 118    -0.0210395433228404
 119    -0.0118295958360145
 120     0.0000421364302415
 121    -0.0006116314001789
 122     0.0383842248178196
 123     0.0066023058732847
 124    -0.0017221319235546
 125    -0.0097890034274584
 126    -0.0013273571161945
 127     0.0141163633937649
 128     0.0027431662998320
 129     0.0110008660441299
 130     0.0014402492799304
 131    -0.0131833925787435
 132    -0.0027161807018578
 133     0.0033544082976601
 134    -0.0001550191957739
 135    -0.0340570370968947
 136    -0.0045288553047198
 137    -0.0031881452623493
 138     0.0001324078418779
 139     0.0359972471912542
 140     0.0046453247069902
 141    -0.0044094583642710
 142    -0.0004764889598576
 143     0.0351171708777420
 144     0.0034542855656611
 145     0.0046825937739135
 146     0.0005080049631757
 147    -0.0329568288453152
 148    -0.0032851128861053
 149    -0.0277062990196462
 150     0.0312605143721053
 151    -0.1909232512585435
 152     0.2122748741005298
 153    -0.0025465646915973
 154    -0.0004416841617378
 155    -0.0022283932575870
 156    -0.0000220067064302
 157     0.0005470582058781
 158    -0.3152177890003846
 159    -0.0111296312212503
 160    -0.2035727342691753
 161     0.1959365895278267
 162    -0.3096104829324828
 163    -0.0532356479871783
 164     0.0073210352684705
 165     0.0008405911497988
 166    -0.0092520285853023
 167     0.0002844858723890
 168     0.0337631112753966
 169    -0.5887363946910484
 170     0.1400676788274924
 171    -0.0590585654892274
 172    -0.0098011603023666
 173     0.0070242104713792
 174     0.0011553018344438
 175    -0.0017924255443227
 176     0.1788422261676546
 177     0.0583847764198869
 178    -0.1319906698347721
 179     0.2051704624347419
 180     0.3625542367198735
 181     0.0632646716869863
 182     0.0071307533998872
 183     0.0011250788622871
 184     0.0107676293437282
 Sym= 61A
 Ene= -0.093224
 Spin= Alpha
 Occup= 2.000000
  1     0.0034785418189167
  2     0.0021972397490360
  3     0.0064464769094410
  4     0.0041426795921926
  5     0.0003066069628713
  6    -0.0010283618616146
  7    -0.0005135741888924
  8    -0.0003104514960092
  9     0.0003572570908157
 10    -0.0078693528864473
 11    -0.0060026744664976
 12    -0.0004738601651126
 13    -0.0003973407548459
 14     0.0027948583611279
 15    -0.0006314227020878
 16    -0.0000424634775437
 17     0.0005561842574210
 18     0.0003195075978489
 19     0.0032761721444154
 20     0.0023740713521128
 21    -0.0071043796410039
 22    -0.0052535603327360
 23     0.0020133096786893
 24    -0.0007759725781932
 25     0.0004702791957928
 26    -0.0003349091432541
 27     0.0003204981293924
 28    -0.0002148550894566
 29    -0.0006166225297375
 30    -0.0000872739837430
 31    -0.0005745479354255
 32    -0.0139549832138005
 33    -0.0000172729364100
 34     0.0001466924466925
 35     0.0001463354254907
 36    -0.0028628421143674
 37    -0.0032268599200216
 38     0.0009682049749866
 39     0.0006664794653196
 40     0.0630754821829195
 41    -0.0703827881131750
 42    -0.0009262757481316
 43    -0.0012131092206705
 44    -0.2581316817101739
 45    -0.0354256372812104
 46     0.0001265493012665
 47     0.0001257365396364
 48    -0.0812654290440227
 49    -0.0131641979761269
 50    -0.0002902221115406
 51     0.0021673315244318
 52     0.2477322542984353
 53    -0.0275744212622207
 54     0.0306449463175164
 55     0.0049160981738364
 56    -0.1252047000080952
 57     0.0103472327991606
 58     0.0359102056576445
 59    -0.0445540528992169
 60     0.1195208795595870
 61    -0.0277556462000812
 62    -0.0297341043277069
 63    -0.0061751123272734
 64    -0.1254866341938961
 65     0.0109411373431989
 66    -0.0366032794760814
 67     0.0466428256764274
 68     0.1202861160508689
 69     0.0020796013864594
 70    -0.0089011792007019
 71    -0.0272063783217781
 72     0.0221011377066654
 73    -0.0165393730940376
 74    -0.0198727231204847
 75    -0.0186959333778826
 76    -0.2364917386620752
 77     0.0019623850580133
 78     0.0082600663063897
 79     0.0268322043539753
 80     0.0219969470386076
 81    -0.0168574840110449
 82     0.0168257413207546
 83     0.0178163621391007
 84    -0.2355476627947891
 85    -0.0074080823672481
 86    -0.0237631813842259
 87    -0.0148424713601285
 88    -0.0259514170742117
 89    -0.0069636122245555
 90    -0.0072490504255511
 91    -0.0081195784118294
 92     0.2416761605654215
 93    -0.0073365449446656
 94     0.0231372012413787
 95     0.0143824914055025
 96    -0.0258880738064508
 97    -0.0071929432502407
 98     0.0086052847260262
 99     0.0092594606956963
 100     0.2409298778176182
 101    -0.0039245885555937
 102     0.0000208695677699
 103     0.0000458086407496
 104     0.0087642824783019
 105    -0.0027511348701547
 106     0.0006143892224236
 107    -0.0014706150373771
 108    -0.2223034202376806
 109    -0.0075442915082123
 110     0.0006727282322024
 111     0.0006354559298089
 112    -0.0114827659007810
 113    -0.0881760652323776
 114     0.0002323594823930
 115    -0.0021209305826936
 116     0.2137282205612971
 117    -0.0021668472266273
 118     0.0006534691052156
 119     0.0005886844739981
 120     0.0080817799528659
 121    -0.0919718554462896
 122    -0.0002222731572222
 123    -0.0018360907575492
 124    -0.2230886466296840
 125     0.0642439953357692
 126     0.0059995762359288
 127     0.0505447781122763
 128     0.0013840063818332
 129     0.0656285876956827
 130     0.0061515980101258
 131     0.0491812766951351
 132     0.0012573826708615
 133     0.0090375357050599
 134    -0.0011179686495731
 135     0.1072794609920230
 136     0.0064633746419755
 137     0.0089593546997025
 138    -0.0012134120578921
 139     0.1090438084316910
 140     0.0066525516613418
 141     0.0145650173717619
 142     0.0016456264179220
 143     0.1206492367486194
 144     0.0095425368702489
 145     0.0145654171665861
 146     0.0016561361047934
 147     0.1186015159447223
 148     0.0092996198983739
 149    -0.0000487689297456
 150     0.0013004703644372
 151     0.0026666633176087
 152    -0.0023879243670219
 153    -0.3305866071530851
 154    -0.0132526253290577
 155     0.0001765099099143
 156    -0.0002985839620564
 157     0.0810893653542761
 158    -0.0998731788521426
 159     0.0774237415107886
 160     0.1740627493440435
 161    -0.1344098876901544
 162     0.0693153568997879
 163    -0.0225298265388791
 164     0.0129279994113246
 165    -0.0074291222826561
 166    -0.0072787774683915
 167     0.1986141542768553
 168    -0.1501375481527556
 169     0.0052320466745265
 170    -0.0016620867459824
 171     0.0611018279984904
 172    -0.0237067908444217
 173    -0.0000451487721485
 174     0.0151775333235369
 175    -0.0075850240191928
 176    -0.1043439787080617
 177     0.0772788997349548
 178    -0.1710949947703895
 179     0.1308203781399240
 180     0.0605952889221232
 181    -0.0241803571438369
 182    -0.0131722819747140
 183    -0.0075182521311570
 184    -0.0073790094033210
 Sym= 62A
 Ene= -0.092885
 Spin= Alpha
 Occup= 2.000000
  1     0.0251475025623421
  2     0.0368341481432350
  3     0.0078633190214106
  4     0.0280511810735008
  5     0.0695102528216171
  6     0.0101634361681768
  7    -0.0001170100456914
  8     0.0022628238093038
  9    -0.0014655767226679
 10     0.0209744584477106
 11     0.0460904166670389
 12     0.0142742678489083
 13     0.0153803925469501
 14    -0.0753676915654119
 15    -0.0106178992787460
 16     0.0017336119519397
 17     0.0011055343847352
 18     0.0015630340728115
 19     0.0296089034639995
 20     0.0296960433536423
 21     0.0150660915004545
 22     0.0154867853605627
 23     0.0033066571610839
 24     0.0007202457478224
 25     0.0018121195509358
 26     0.0033045557799402
 27    -0.0000920974593368
 28     0.0042427498991496
 29     0.0424015157730909
 30     0.0015775398567292
 31     0.0215003968187833
 32     0.0000308100852867
 33    -0.0001403947895441
 34    -0.0061205037514182
 35    -0.0118119657232298
 36     0.0000647203930218
 37    -0.0000165464204097
 38    -0.0399674848950309
 39    -0.0741991190730522
 40     0.0005065676907322
 41    -0.0005866990999966
 42     0.0292249057137205
 43     0.1227670034245314
 44    -0.0021175598891620
 45    -0.0002858612530516
 46    -0.0163914542253754
 47    -0.0040833899937629
 48    -0.0006478946293915
 49    -0.0000951742464465
 50    -0.0237690830303810
 51    -0.2112642103339565
 52     0.0020428853248057
 53    -0.0087022423264186
 54    -0.0151393822166029
 55     0.0668488142304615
 56    -0.0104534138372678
 57     0.0277120247225030
 58     0.0197932732062337
 59    -0.1112326682170983
 60     0.0330393346079273
 61     0.0082430047891346
 62    -0.0156666224487828
 63     0.0667589909026485
 64     0.0084287848678073
 65    -0.0275254872143550
 66     0.0191514053237206
 67    -0.1104940425223676
 68    -0.0310979266041140
 69    -0.0012143799112371
 70     0.0225072570807697
 71     0.0031224610686774
 72     0.0013014063060534
 73    -0.0140484518613812
 74     0.1622945069182517
 75     0.0709700121140955
 76     0.0365211051056959
 77     0.0012570497056931
 78     0.0226646163163658
 79     0.0035774639618268
 80    -0.0009818382993828
 81     0.0137404010768502
 82     0.1625728867586469
 83     0.0712798785006343
 84    -0.0404394416952919
 85     0.0041577710078082
 86     0.0193616391088843
 87     0.0145910071330048
 88    -0.0024696217885732
 89    -0.0066515680324296
 90    -0.0750011306919607
 91    -0.1020578998110956
 92    -0.0223611200359838
 93    -0.0042862689294923
 94     0.0197741804604871
 95     0.0148338919683049
 96     0.0020947875452127
 97     0.0065652648886342
 98    -0.0748724251812143
 99    -0.1018899355430691
 100     0.0263919363947017
 101    -0.0000175073049531
 102     0.0009918519281370
 103    -0.0009605401972447
 104     0.0000271444592330
 105    -0.0000474533383086
 106     0.0083938435596920
 107     0.1554446702052685
 108    -0.0019205713070773
 109    -0.0000843409719656
 110    -0.0273631006850656
 111    -0.0531897812799673
 112    -0.0000567814175181
 113    -0.0007067809749051
 114    -0.0375545092687211
 115     0.1806348314200482
 116     0.0017887057165232
 117     0.0000759816408560
 118    -0.0272190369079647
 119    -0.0525489291714910
 120    -0.0000576114551037
 121    -0.0008879009495392
 122    -0.0288900212543943
 123     0.1315504743223830
 124    -0.0020465114571913
 125     0.0721597525424031
 126     0.0081827017139165
 127    -0.0747273035446000
 128    -0.0087166071980768
 129    -0.0711144660675730
 130    -0.0080836278755836
 131     0.0755422096182973
 132     0.0087379464065784
 133    -0.0050119277855454
 134    -0.0039277981965833
 135     0.1224347642222507
 136     0.0140084765578328
 137     0.0051371442563595
 138     0.0039067395897305
 139    -0.1206479119180327
 140    -0.0139002223800297
 141     0.0033585826965439
 142     0.0011008178998331
 143    -0.1326012140048467
 144    -0.0146551443407597
 145    -0.0031407077977468
 146    -0.0010748215953494
 147     0.1345971321353730
 148     0.0148117799552299
 149     0.1142373943491341
 150    -0.1865807415513265
 151    -0.0251633719535401
 152     0.0409334040686473
 153    -0.0029607983867837
 154     0.0000610067096755
 155    -0.0076513234246196
 156     0.0332916882793864
 157     0.0007867420810791
 158     0.2483248280376432
 159    -0.1695508477034075
 160     0.0747647779886193
 161     0.0800439319530807
 162    -0.2663265324066938
 163    -0.0420773125143536
 164    -0.0002702469893597
 165    -0.0099816890788802
 166    -0.0069623076502885
 167     0.0895967573588510
 168    -0.2297174391701267
 169    -0.0712558222298270
 170     0.0305305719652744
 171     0.3904938397674913
 172     0.0600707002490160
 173     0.0025290860568932
 174    -0.0065769454388063
 175     0.0099450603354753
 176     0.2991860552660956
 177    -0.1539052747634131
 178    -0.1435722080004536
 179     0.0094800863793003
 180    -0.1187470321946905
 181    -0.0190981754053175
 182     0.0038059819326367
 183    -0.0109347364233894
 184    -0.0031256220499436
 Sym= 63A
 Ene= -0.090521
 Spin= Alpha
 Occup= 2.000000
  1    -0.0718450258436011
  2     0.1212770185702237
  3     0.0573698675020579
  4    -0.1545915657796806
  5    -0.0768401993542609
  6    -0.0053532560374167
  7    -0.0154520065773523
  8     0.0273475628606117
  9    -0.0001714376526258
 10    -0.0160596389077625
 11     0.3053924415667659
 12     0.0601740209907929
 13    -0.1166056423368465
 14    -0.3606189673511727
 15    -0.0317991044136694
 16    -0.0202958251052296
 17     0.0005149233118717
 18     0.0017037568191381
 19    -0.0319662562806442
 20     0.2403603622891844
 21     0.0139957637340060
 22    -0.2877632845106878
 23     0.4267153173745001
 24     0.0381709348548456
 25     0.0052777378098743
 26     0.0096421175798466
 27    -0.0014199113590334
 28    -0.1012426258095981
 29     0.1540198175973451
 30     0.0871519581398802
 31    -0.1199722019181224
 32     0.0004790347891350
 33    -0.0005312027791038
 34     0.0567259534692911
 35    -0.0695198006249598
 36     0.0002663785695350
 37     0.0000109701248619
 38     0.0085548678024546
 39     0.0139917060023742
 40    -0.0000457621949349
 41     0.0000123558384658
 42    -0.0042279177356013
 43    -0.0182398313804221
 44     0.0000451591747734
 45     0.0000104903087564
 46     0.0244202679087764
 47    -0.0180591862026797
 48     0.0000363212589386
 49     0.0000047980660482
 50     0.0071623155627933
 51     0.0153369348831697
 52    -0.0000469162431029
 53    -0.0000465464380096
 54    -0.0007701091914965
 55    -0.0162613664422084
 56     0.0022291400443094
 57    -0.0014570341720214
 58    -0.0049630485787712
 59     0.0150649175095853
 60    -0.0044772590706073
 61     0.0000541103305137
 62    -0.0007721693429248
 63    -0.0162738950623398
 64    -0.0021652651695214
 65     0.0014589901161817
 66    -0.0049583963791949
 67     0.0150556048139010
 68     0.0044137759723520
 69    -0.0146747622271823
 70    -0.0222146498289281
 71     0.0267271360236550
 72     0.0242144557318274
 73     0.0016974393642681
 74    -0.0122237144175613
 75    -0.0083524561320450
 76    -0.0044095940349046
 77     0.0147041358249038
 78    -0.0222334413264295
 79     0.0267169900368484
 80    -0.0243143126231170
 81    -0.0016922858173720
 82    -0.0122332661958566
 83    -0.0083604487552116
 84     0.0044826035316056
 85     0.0472307961946447
 86     0.0394389543058951
 87    -0.0632999983764599
 88    -0.0516059887660641
 89     0.0009251681234751
 90     0.0046219975299899
 91     0.0086618852986839
 92     0.0031215297782242
 93    -0.0472582405120427
 94     0.0394326357038341
 95    -0.0633695354855978
 96     0.0516932251042751
 97    -0.0009219319945066
 98     0.0046203134258822
 99     0.0086611790503511
 100    -0.0031985994787824
 101     0.0000413903248752
 102    -0.0560460420646436
 103     0.0671639404722197
 104    -0.0001103812869039
 105     0.0000013248446776
 106    -0.0036227652613692
 107    -0.0092197062611870
 108     0.0000328588669023
 109    -0.0000720178052972
 110     0.2157310320196570
 111    -0.2667176561472919
 112     0.0001059640011666
 113     0.0000131511929546
 114    -0.0022763877792475
 115    -0.0154806960854448
 116    -0.0000288419965507
 117     0.0002797918202450
 118     0.2458608288979214
 119    -0.3023500654895392
 120    -0.0003447262142616
 121     0.0000139262265366
 122    -0.0019485934692594
 123    -0.0138792996787475
 124     0.0000352200890447
 125    -0.0142988221529577
 126    -0.0034709852066942
 127     0.0118713979323045
 128     0.0015447600140927
 129     0.0142712409327487
 130     0.0034695880641198
 131    -0.0119035098442713
 132    -0.0015468109684780
 133     0.0442446635337664
 134     0.0049215348579609
 135    -0.0101129936991894
 136    -0.0012548295194965
 137    -0.0442985114531127
 138    -0.0049245545514889
 139     0.0100819422130695
 140     0.0012532833751423
 141    -0.0319034673995223
 142     0.0035521221131384
 143     0.0111394765400628
 144     0.0012983545295556
 145     0.0318482444844768
 146    -0.0035569620585322
 147    -0.0111784231056437
 148    -0.0013014967393521
 149     0.0017530761510674
 150     0.0063577653246236
 151     0.0002887640647300
 152     0.0008484388210288
 153     0.0000511754535187
 154    -0.0000061250352598
 155    -0.0003851766375038
 156    -0.0028849139792087
 157    -0.0000142675801746
 158    -0.0018252220432984
 159     0.0075472137880993
 160    -0.0000085182651924
 161    -0.0010499685648766
 162     0.0064005581184832
 163     0.0007204947555783
 164     0.0003890625966797
 165     0.0007845584116550
 166     0.0001142448674787
 167    -0.0023117474944093
 168     0.0127523838791320
 169    -0.0001695473837810
 170     0.0009140766140467
 171    -0.0170378454087356
 172    -0.0018328440793761
 173     0.0001333631387520
 174     0.0001279093467993
 175    -0.0002876872658103
 176    -0.0019499060920860
 177     0.0083704878035573
 178    -0.0004309303355079
 179     0.0042455354412645
 180     0.0104438517078196
 181     0.0011457710534104
 182    -0.0003039630549703
 183     0.0006851031556947
 184     0.0001752133560388
 Sym= 64A
 Ene= -0.089091
 Spin= Alpha
 Occup= 2.000000
  1    -0.4647212061191174
  2    -0.0283958139149836
  3     0.3326257176961116
  4    -0.0442855517478576
  5    -0.0385069541586130
  6    -0.0006942630859384
  7     0.0010431581009144
  8    -0.0000306417555925
  9    -0.0028079073216646
 10     0.0240452407388949
 11    -0.0310204947921131
 12    -0.5567890198716143
 13    -0.0100552880020784
 14     0.0248198638286361
 15     0.0006786272839242
 16    -0.0024556752735446
 17     0.0004448999361340
 18     0.0011951719628212
 19     0.4992965506897419
 20     0.0000975928266485
 21     0.3252501590110679
 22    -0.0255223533321861
 23     0.0143394718611039
 24    -0.0000272975462014
 25    -0.0011358834068691
 26    -0.0028374732996008
 27     0.0015831450560295
 28     0.0092750163103252
 29    -0.0034048091649109
 30     0.0084072487438603
 31    -0.0000405107247699
 32    -0.0000142226395035
 33     0.0000192770680721
 34     0.0019713064385651
 35     0.0034780271188995
 36     0.0000003811052367
 37     0.0000000428789513
 38     0.0035602690619220
 39    -0.0021124464476722
 40    -0.0000009793496791
 41     0.0000006320783566
 42    -0.0041224871827795
 43     0.0015265386374052
 44     0.0000029091453297
 45     0.0000000433710377
 46     0.0041040891052065
 47     0.0048733576686641
 48     0.0000005586912215
 49     0.0000000194420225
 50     0.0025573353671755
 51    -0.0010062192562061
 52    -0.0000022735075745
 53    -0.0006740149431276
 54    -0.0000356065590134
 55     0.0018349446901513
 56     0.0006521869333611
 57     0.0003861448207208
 58    -0.0035425433491208
 59    -0.0013900062983142
 60    -0.0000848569185518
 61     0.0006742388426512
 62    -0.0000333695070011
 63     0.0018351480540213
 64    -0.0006503028382534
 65    -0.0003861074246215
 66    -0.0035395297479714
 67    -0.0013910413298278
 68     0.0000845931667309
 69     0.0007673444597948
 70     0.0023298025594974
 71    -0.0000942242371479
 72    -0.0000523471802003
 73     0.0002712340303642
 74     0.0024243068619610
 75    -0.0023217244108440
 76    -0.0004550595335464
 77    -0.0007668843913825
 78     0.0023296487413633
 79    -0.0000946873834503
 80     0.0000517067512997
 81    -0.0002707934525211
 82     0.0024233119437923
 83    -0.0023213135530394
 84     0.0004609277350065
 85    -0.0011526491307406
 86    -0.0048766779726632
 87    -0.0013144640551402
 88     0.0009066481759514
 89    -0.0001185808249816
 90     0.0014963128809198
 91    -0.0006610231807790
 92     0.0002748621536689
 93     0.0011522326199774
 94    -0.0048767576717702
 95    -0.0013141575161240
 96    -0.0009066919634701
 97     0.0001185993865841
 98     0.0014954320104887
 99    -0.0006609448240613
 100    -0.0002796608807013
 101     0.0000005056502739
 102    -0.0032480702319840
 103    -0.0051517725988850
 104    -0.0000024247366941
 105     0.0000001431742954
 106    -0.0012045315617996
 107     0.0005916498824791
 108     0.0000024678509353
 109     0.0000002258486813
 110    -0.0006046645449229
 111     0.0088612889605924
 112     0.0000026248549248
 113     0.0000004568145081
 114    -0.0045336420429395
 115     0.0032419621612099
 116    -0.0000041657599071
 117     0.0000000971171216
 118     0.0018109230683049
 119     0.0118774260305745
 120    -0.0000004161074676
 121     0.0000021968122542
 122    -0.0044204923777888
 123     0.0031651653883397
 124     0.0000017813463528
 125     0.0012251535181078
 126     0.0000826503102666
 127    -0.0013404054692595
 128    -0.0000835791869925
 129    -0.0012263754216229
 130    -0.0000827988736444
 131     0.0013399017130423
 132     0.0000836622706486
 133    -0.0012626337570046
 134    -0.0001070845674957
 135    -0.0001774437136807
 136     0.0000854096597416
 137     0.0012626132544654
 138     0.0001071472424004
 139     0.0001750743332639
 140    -0.0000855654782088
 141     0.0010918602566955
 142    -0.0000418505025744
 143     0.0004413790559365
 144     0.0000351369300420
 145    -0.0010923483275451
 146     0.0000421437424431
 147    -0.0004438492549676
 148    -0.0000353120942285
 149    -0.0011572789481915
 150    -0.0010080699710398
 151     0.0016619631413917
 152     0.0013635841346782
 153     0.0000045186107437
 154    -0.0000006728028377
 155    -0.0009572944091027
 156     0.0006852447142893
 157    -0.0000011342698234
 158    -0.0010687423405027
 159    -0.0034977018494617
 160     0.0017982143818653
 161     0.0055989340873729
 162    -0.0066537490515455
 163    -0.0004322881779968
 164    -0.0000515437080457
 165    -0.0000205537397446
 166     0.0000517552167004
 167    -0.0011442273574336
 168    -0.0037871740072210
 169     0.0015427961866664
 170     0.0020261727031111
 171     0.0038729285554468
 172     0.0002589184535802
 173     0.0003963314232536
 174     0.0000171094589974
 175    -0.0000254278926708
 176    -0.0011089147415491
 177    -0.0005698434790442
 178     0.0017335369927981
 179     0.0035531842346571
 180     0.0027590427744895
 181     0.0001745502459060
 182     0.0002055120696940
 183    -0.0003899967211346
 184    -0.0000266567304504
 Sym= 65A
 Ene= -0.088811
 Spin= Alpha
 Occup= 2.000000
  1     0.3085773999973039
  2    -0.2432072752713459
  3     0.3486280368364237
  4    -0.3843454793238349
  5    -0.3094889658033395
  6    -0.0000141760859846
  7     0.0097005328052388
  8     0.0006330088113005
  9    -0.0254710224541323
 10     0.2670828601252453
 11    -0.2831083396480958
 12     0.2866066982532711
 13    -0.0782204231770465
 14     0.2034293676888647
 15     0.0015619299454525
 16    -0.0216406182212626
 17     0.0049532296234428
 18     0.0142626899908455
 19     0.0599015719531533
 20     0.0034930172938719
 21     0.2575731774439931
 22    -0.2021370425565377
 23     0.1116171708604470
 24    -0.0018644853426160
 25    -0.0098828909948972
 26    -0.0244469990633195
 27     0.0108827711268030
 28     0.0746043404886117
 29    -0.0025080259403877
 30     0.0881045201016847
 31     0.0182443712081014
 32    -0.0000774255059209
 33     0.0001184205170919
 34     0.0257517171716083
 35     0.0239976726799561
 36     0.0000581405209411
 37     0.0000023767234496
 38     0.0380365584580065
 39    -0.0179248989522388
 40    -0.0000166199247074
 41     0.0000066076476033
 42    -0.0426408741686009
 43     0.0113327778698199
 44     0.0000302930801062
 45     0.0000015994976791
 46     0.0429979668915281
 47     0.0441688066652575
 48     0.0000100447275645
 49     0.0000006475363328
 50     0.0248194402711972
 51    -0.0060139418330131
 52    -0.0000245129721331
 53    -0.0064432919822258
 54     0.0008845186783510
 55     0.0149099602181744
 56     0.0067272342176950
 57     0.0032891651593609
 58    -0.0357605458928998
 59    -0.0106166609832808
 60    -0.0017462091308116
 61     0.0064455719591221
 62     0.0009032716267422
 63     0.0149093501817445
 64    -0.0067042794729237
 65    -0.0032879649689026
 66    -0.0357330123790473
 67    -0.0106261693867828
 68     0.0017383465102806
 69     0.0052019735813992
 70     0.0181878016920852
 71     0.0024828145522425
 72     0.0036120764040390
 73     0.0030830762568489
 74     0.0209961761808106
 75    -0.0237142349300232
 76    -0.0054608872678873
 77    -0.0051917029876194
 78     0.0181835076945318
 79     0.0024780906404756
 80    -0.0036366357965524
 81    -0.0030787693311693
 82     0.0209854875984629
 83    -0.0237106130788116
 84     0.0055193193979658
 85    -0.0034654704010907
 86    -0.0411627221245074
 87    -0.0230535800080086
 88     0.0002858128023875
 89    -0.0009779734147093
 90     0.0158689017331207
 91    -0.0055992070697155
 92     0.0034371896817543
 93     0.0034561575880764
 94    -0.0411623351864742
 95    -0.0230629701960979
 96    -0.0002708331611868
 97     0.0009784669715231
 98     0.0158603754742416
 99    -0.0055979320856087
 100    -0.0034855068933219
 101     0.0000132198805326
 102    -0.0394725929335778
 103    -0.0384332397488053
 104    -0.0000452983399465
 105     0.0000014146489179
 106    -0.0108375500663313
 107     0.0034160406712928
 108     0.0000244236319161
 109    -0.0000131687970009
 110     0.0312296305175967
 111     0.0431526508286172
 112     0.0000480103985588
 113     0.0000050278258661
 114    -0.0442477211760761
 115     0.0281031507102152
 116    -0.0000398166381291
 117     0.0000549178945445
 118     0.0580598043855550
 119     0.0666210996058120
 120    -0.0000715382746445
 121     0.0000209195646361
 122    -0.0439858399598435
 123     0.0279975229921101
 124     0.0000170226784390
 125     0.0093001476076616
 126     0.0002264235337164
 127    -0.0108208080332552
 128    -0.0005633423101935
 129    -0.0093137164476738
 130    -0.0002277530791483
 131     0.0108126262304468
 132     0.0005638439401015
 133    -0.0051974604056542
 134    -0.0002024617592180
 135    -0.0033289175376892
 136     0.0006506392455758
 137     0.0051873961865676
 138     0.0002023721034166
 139     0.0033056704861151
 140    -0.0006521018270981
 141     0.0056171064529427
 142     0.0002317434331961
 143     0.0061466874922255
 144     0.0005650310500110
 145    -0.0056314588469558
 146    -0.0002295455534889
 147    -0.0061718522426154
 148    -0.0005667604360946
 149    -0.0119612293833679
 150    -0.0079784975253959
 151     0.0194061862285664
 152     0.0119356169722684
 153     0.0000449493861597
 154    -0.0000084161121870
 155    -0.0097873016817730
 156     0.0062188177024356
 157    -0.0000105900317989
 158    -0.0152174183140926
 159    -0.0373336130382459
 160     0.0297171153627047
 161     0.0628751998401430
 162    -0.0682625626979424
 163    -0.0036103757330056
 164    -0.0006221987526721
 165     0.0001654471325984
 166     0.0012478662970620
 167    -0.0167194357706573
 168    -0.0382267314171371
 169     0.0215162077692667
 170     0.0212020325635426
 171     0.0363120138381764
 172     0.0020126409285986
 173     0.0044367282539692
 174     0.0002965998997724
 175    -0.0005984637203240
 176    -0.0134714793824566
 177    -0.0019320864009665
 178     0.0269232760071424
 179     0.0411352447093918
 180     0.0316754713782016
 181     0.0016119921120861
 182     0.0020239435257000
 183    -0.0041552950658165
 184    -0.0006557269372939
 Sym= 66A
 Ene= -0.088268
 Spin= Alpha
 Occup= 2.000000
  1     0.0027405806680773
  2    -0.0016259263321809
  3     0.0039232476192507
  4    -0.0026288472532456
  5    -0.0015344014045221
  6     0.0001067919223912
  7     0.0000819685645995
  8     0.0000171441416013
  9    -0.0002899091116906
 10     0.0028037346795816
 11    -0.0019406627534710
 12     0.0019795259591020
 13    -0.0002503997838936
 14     0.0010435553843901
 15    -0.0000544723944404
 16    -0.0001080931393615
 17     0.0000464866582095
 18     0.0001646423265410
 19     0.0005978844464615
 20     0.0002891569351327
 21     0.0026558694758508
 22    -0.0011995363724520
 23     0.0005235297061918
 24    -0.0000536196465535
 25    -0.0000398026005659
 26    -0.0001329808926768
 27     0.0001221029312184
 28     0.0002345726593596
 29     0.0004796180473966
 30     0.0001880059003787
 31     0.0008095344631210
 32     0.0000001662764831
 33    -0.0000001207081481
 34    -0.0000383775392847
 35     0.0000102779240819
 36     0.0000012412870111
 37     0.0000000784141440
 38    -0.0010742921096651
 39    -0.0001782253463158
 40     0.0000000813497806
 41    -0.0000000398781329
 42     0.0010678010608213
 43     0.0004629726308238
 44    -0.0000002739941248
 45     0.0000000185078988
 46    -0.0001129025866541
 47    -0.0002077729679722
 48     0.0000000592686022
 49     0.0000000803664919
 50     0.0002679151816572
 51    -0.0011365661980613
 52     0.0000002056521833
 53    -0.0000204789339640
 54    -0.0005125457935496
 55     0.0001779188992660
 56    -0.0001035996836532
 57     0.0001453542982218
 58     0.0004848047566954
 59    -0.0003955222263860
 60     0.0001950175929435
 61     0.0000204415586124
 62    -0.0005126535978934
 63     0.0001778659380918
 64     0.0001038053913599
 65    -0.0001452861000138
 66     0.0004844983441302
 67    -0.0003954867878846
 68    -0.0001951933409385
 69    -0.0000803889046916
 70     0.0002120862455449
 71     0.0002289145967439
 72    -0.0001038897862110
 73    -0.0001329116108387
 74     0.0005939174867279
 75     0.0002924135718577
 76     0.0002576391693671
 77     0.0000805162297899
 78     0.0002122801214468
 79     0.0002290652825842
 80     0.0001035539070724
 81     0.0001327840766276
 82     0.0005939543404791
 83     0.0002924096397618
 84    -0.0002580654571417
 85     0.0000097342089887
 86     0.0003242102018517
 87     0.0002391325678000
 88     0.0000700904551700
 89     0.0000000161508443
 90    -0.0006564536235747
 91    -0.0000265785195101
 92    -0.0001636373549928
 93    -0.0000098507597422
 94     0.0003245655012843
 95     0.0002391927682450
 96    -0.0000695647658614
 97     0.0000000791033887
 98    -0.0006564436718487
 99    -0.0000265967609255
 100     0.0001640121011312
 101     0.0000001956542920
 102     0.0000106847774296
 103    -0.0000165024360091
 104    -0.0000005429358110
 105    -0.0000000614495574
 106    -0.0005589842027223
 107     0.0009158244116090
 108    -0.0000004951499526
 109    -0.0000003648951395
 110    -0.0007937315977212
 111    -0.0004276239616466
 112     0.0000004901913182
 113    -0.0000001264263786
 114     0.0000332387308017
 115     0.0005672879296289
 116     0.0000001245038130
 117     0.0000011406955850
 118    -0.0007662374681714
 119    -0.0003749268902701
 120    -0.0000015571729039
 121    -0.0000004524910221
 122     0.0005180484800476
 123     0.0001057314000751
 124    -0.0000004066791818
 125     0.0002384336730876
 126     0.0000275458784938
 127    -0.0002203057340183
 128    -0.0000177303233162
 129    -0.0002384367985538
 130    -0.0000275388328136
 131     0.0002202972590376
 132     0.0000177229271584
 133    -0.0000006435915945
 134    -0.0000300907920164
 135     0.0003984231320236
 136     0.0000309513576446
 137     0.0000004155379567
 138     0.0000300622726316
 139    -0.0003983025651135
 140    -0.0000309488760073
 141    -0.0000396977948423
 142    -0.0000046592891896
 143    -0.0004822987634387
 144    -0.0000532205282105
 145     0.0000394974927774
 146     0.0000046960112788
 147     0.0004825844248764
 148     0.0000531589413549
 149     0.0015952665829895
 150     0.0001129394070077
 151    -0.0020116896201384
 152    -0.0001055208929960
 153    -0.0000013655622616
 154     0.0000010781206350
 155     0.0004428389757699
 156    -0.0002907877140639
 157     0.0000000369349643
 158    -0.4903967384915745
 159     0.0077157815451533
 160    -0.3035903215839063
 161    -0.0120100717161614
 162     0.0102752405951570
 163     0.0001730054022644
 164     0.0002881245453764
 165     0.0000111492845372
 166    -0.0008274652951058
 167     0.0124740185652655
 168     0.0096389192703930
 169     0.5735514061017779
 170    -0.0025812224038777
 171    -0.0069758859732712
 172    -0.0001276569122892
 173    -0.0006199970497139
 174    -0.0001635276179462
 175     0.0006167208482000
 176     0.5005833553182334
 177     0.0005375850766778
 178    -0.2950588733733817
 179    -0.0056334919745608
 180    -0.0032793449646945
 181    -0.0000437694348048
 182    -0.0003175178225274
 183     0.0007126364336852
 184     0.0002106845080008
 Sym= 67A
 Ene= -0.087837
 Spin= Alpha
 Occup= 2.000000
  1     0.0016509181835325
  2    -0.0176343379149137
  3     0.0961986005292678
  4    -0.0307025280326455
  5    -0.0101470017837871
  6     0.0025546092847642
  7     0.0001607457931822
  8     0.0019530321500989
  9    -0.0053869515024067
 10    -0.0704253361380720
 11     0.0341820459914960
 12     0.0557196595058971
 13     0.0010743273043104
 14    -0.0126434317908051
 15     0.0019627932002987
 16    -0.0014374419176127
 17    -0.0009954084663777
 18    -0.0043764577832799
 19    -0.0771742514359392
 20     0.0354311639956011
 21     0.1326811569192724
 22    -0.0590857285872206
 23     0.0221736991863035
 24    -0.0044982971616061
 25     0.0019391846243550
 26    -0.0009295268385133
 27     0.0098575452752356
 28     0.0028582866674104
 29    -0.0186392157616363
 30    -0.0095309816577158
 31     0.0396042743889446
 32    -0.0000237684149423
 33     0.0000262354826163
 34    -0.0069040157684493
 35     0.0028991800427562
 36    -0.0000510437456205
 37    -0.0000004806634633
 38    -0.0300710442327573
 39     0.0058978256958148
 40    -0.0000042223743811
 41     0.0000259908153617
 42     0.0322137017789939
 43    -0.0041372814933431
 44     0.0000750648217759
 45     0.0000091733660408
 46    -0.0078899696741666
 47    -0.0078443427552203
 48     0.0000160431474652
 49     0.0000027044748894
 50     0.0119164067477233
 51     0.0053272305076087
 52    -0.0000736889061689
 53     0.0012531518251577
 54    -0.0127236244661625
 55    -0.0040463578994205
 56    -0.0025368976396577
 57    -0.0003237566938043
 58     0.0151285420190101
 59     0.0054112449869171
 60     0.0014311694230088
 61    -0.0012345928202537
 62    -0.0126793698115426
 63    -0.0040407516711460
 64     0.0026079135031294
 65     0.0003152097806825
 66     0.0151716270246708
 67     0.0053818634238677
 68    -0.0014987569224544
 69    -0.0009927607425874
 70     0.0034898615858980
 71     0.0029439274011008
 72    -0.0062783200331399
 73    -0.0004422232210802
 74    -0.0137568685318377
 75    -0.0053885395455550
 76     0.0060027172406923
 77     0.0009852089580238
 78     0.0034924028674259
 79     0.0029333036637570
 80     0.0062874885411436
 81     0.0004657080933278
 82    -0.0137570437685711
 83    -0.0054025683965194
 84    -0.0058315067069276
 85    -0.0054300689458440
 86     0.0063506193104836
 87     0.0142767101664650
 88     0.0081936736354450
 89    -0.0036496724914132
 90    -0.0000721023024609
 91     0.0242773597486095
 92    -0.0085608518984285
 93     0.0054403457430660
 94     0.0063418404159886
 95     0.0142832801464000
 96    -0.0081937331809179
 97     0.0036420334677942
 98    -0.0000823177946156
 99     0.0242571759763728
 100     0.0083782903871023
 101    -0.0000076135874970
 102     0.0104952523033036
 103    -0.0038219292073783
 104     0.0000215635841999
 105     0.0000138788572911
 106    -0.0241556691566636
 107    -0.0121767167177708
 108     0.0001104852404370
 109     0.0000156320587843
 110    -0.0472921951551271
 111     0.0218689805140192
 112    -0.0000242552270297
 113     0.0000077316134853
 114     0.0293174228324656
 115     0.0123050464982613
 116    -0.0001118242603873
 117    -0.0000493333334313
 118    -0.0519908165977172
 119     0.0236248899377978
 120     0.0000603356662821
 121     0.0001004818657368
 122     0.0490358048273345
 123     0.0209731961640279
 124     0.0001828382797613
 125    -0.0029218029252210
 126    -0.0000607518926110
 127     0.0047522229987958
 128     0.0010209367866710
 129     0.0028871623768344
 130     0.0000570821007350
 131    -0.0047775856227865
 132    -0.0010210013123627
 133    -0.0037037778573803
 134    -0.0008126655553997
 135    -0.0151251778325007
 136    -0.0021671317226451
 137     0.0037080870998934
 138     0.0008134777513444
 139     0.0150441175588381
 140     0.0021618840416542
 141     0.0013289002188093
 142    -0.0007925640092560
 143     0.0127291791008537
 144     0.0009734002305504
 145    -0.0013267315639679
 146     0.0007935119715863
 147    -0.0128135235899967
 148    -0.0009823438351608
 149    -0.0396821581629360
 150     0.0140015731038854
 151    -0.0919496350263113
 152     0.0322617311485203
 153     0.0001169440722028
 154     0.0000506143401359
 155     0.0230143883942340
 156     0.0099260822040299
 157    -0.0001050706272486
 158    -0.0381765187669928
 159     0.0711725484119460
 160    -0.3728068422386874
 161    -0.2614072282902239
 162     0.1646944364783940
 163    -0.0027841415283799
 164    -0.0054247299803612
 165    -0.0204084858740356
 166    -0.0173861933016105
 167    -0.2029875445093282
 168    -0.1745583806402771
 169    -0.2678348992013169
 170    -0.0790047186091441
 171     0.1100374739148538
 172    -0.0018604900392162
 173    -0.0233773769694574
 174     0.0036291469501356
 175    -0.0115837288940271
 176    -0.2301110308129916
 177    -0.2076589126512970
 178    -0.4480710976861400
 179    -0.3798194092354999
 180    -0.2708648443826850
 181     0.0045053289324235
 182     0.0065351104764528
 183     0.0071874411489606
 184     0.0292664468281127
 Sym= 68A
 Ene= -0.087780
 Spin= Alpha
 Occup= 2.000000
  1     0.1691446441452085
  2     0.0073763952538017
  3    -0.1638550174751338
  4     0.0095206552453083
  5    -0.0031015891273206
  6    -0.0020954536628812
  7     0.0031941656447333
  8    -0.0064584357384744
  9     0.0036761729917840
 10     0.5144785940294941
 11    -0.2393001798382766
 12    -0.1414922905035999
 13    -0.0056432035570859
 14     0.0834427001904753
 15    -0.0145839325496790
 16     0.0030207035324934
 17     0.0071200395823590
 18     0.0321853990329173
 19     0.3764309036713017
 20    -0.1268311229231313
 21    -0.4346427472281168
 22     0.2116121544468706
 23    -0.0763822201380320
 24     0.0165591885369738
 25    -0.0088348423716462
 26     0.0003049083423707
 27    -0.0364976190548210
 28    -0.0275176246152725
 29     0.1406259584768491
 30     0.0302226549078418
 31    -0.1069543070190993
 32     0.0001784118532216
 33    -0.0001908263816160
 34     0.0197104793109730
 35    -0.0233918172784310
 36     0.0003495702243080
 37     0.0000139324107415
 38    -0.0007933461049257
 39     0.0059001747600699
 40    -0.0000454326963138
 41     0.0000118699457616
 42     0.0035036186191615
 43    -0.0070354563709497
 44     0.0000387641853313
 45     0.0000100161911713
 46     0.0138839026609391
 47    -0.0103717294030633
 48     0.0000374585046602
 49     0.0000048584700051
 50     0.0068659948162657
 51     0.0038401065176361
 52    -0.0000403674042128
 53    -0.0004139970929455
 54    -0.0033727166723958
 55    -0.0073398946174062
 56     0.0009278710238040
 57     0.0000740756189168
 58    -0.0004534442427717
 59     0.0058283831480502
 60    -0.0015104953880793
 61     0.0004207506585662
 62    -0.0033855337780645
 63    -0.0073543628219700
 64    -0.0008698521579010
 65    -0.0000703714163376
 66    -0.0004601415367506
 67     0.0058198699007623
 68     0.0014519867012312
 69    -0.0092540046783777
 70    -0.0109041884413912
 71     0.0165582616592921
 72     0.0141799664293000
 73     0.0006122369898234
 74    -0.0045933069111339
 75    -0.0048395638506957
 76    -0.0003482048063368
 77     0.0092913972608111
 78    -0.0109113653292063
 79     0.0165562558447694
 80    -0.0143010256990075
 81    -0.0006060939036646
 82    -0.0046012038232787
 83    -0.0048456247395566
 84     0.0004173605441130
 85     0.0290714323729385
 86     0.0245798945027208
 87    -0.0363459589935956
 88    -0.0308755036657331
 89    -0.0005125388668827
 90     0.0011844688489434
 91     0.0072037152589430
 92    -0.0006390766565033
 93    -0.0291066364094591
 94     0.0245963809432341
 95    -0.0364048647666002
 96     0.0309898120846063
 97     0.0005138752658470
 98     0.0011802833992228
 99     0.0072011471571424
 100     0.0005662625924805
 101     0.0000555795923340
 102    -0.0334201619178042
 103     0.0386111236574054
 104    -0.0001471705282835
 105     0.0000032922109297
 106    -0.0075228802336024
 107    -0.0035062452837136
 108     0.0000355311963324
 109    -0.0000965632219945
 110     0.1291197643881502
 111    -0.1670831526609927
 112     0.0001584107569681
 113     0.0000075388316912
 114     0.0025108164542568
 115    -0.0000645868682184
 116    -0.0000362465752675
 117     0.0003297835007215
 118     0.1434680303554151
 119    -0.1823747952233811
 120    -0.0004245080020896
 121     0.0000251532115217
 122     0.0073822686515673
 123     0.0013838942839374
 124     0.0000497082484645
 125    -0.0061102857207141
 126    -0.0018305975512599
 127     0.0048681109872591
 128     0.0008019291093137
 129     0.0060856177923763
 130     0.0018301424940986
 131    -0.0048973134622872
 132    -0.0008038235629185
 133     0.0255596981264923
 134     0.0026373615448030
 135    -0.0057855137308064
 136    -0.0007556419064090
 137    -0.0256226696006166
 138    -0.0026415231770481
 139     0.0057547234585575
 140     0.0007538998757060
 141    -0.0183304027081621
 142     0.0025468522125976
 143     0.0056669518147519
 144     0.0005630762572077
 145     0.0182678302220127
 146    -0.0025523325013917
 147    -0.0057023555587468
 148    -0.0005665440004141
 149    -0.0055132140865893
 150     0.0028843856505057
 151    -0.0205636573556535
 152     0.0092919326793281
 153     0.0000418350872880
 154     0.0000102959538857
 155     0.0047115329164472
 156     0.0011997167877385
 157    -0.0000269470370892
 158     0.0031478759585358
 159     0.0231711820913548
 160    -0.0939070314329421
 161    -0.0659495393740601
 162     0.0421347488534680
 163    -0.0009166144194832
 164    -0.0006854651831796
 165    -0.0041593288272445
 166    -0.0047990865688186
 167    -0.0324590815341249
 168    -0.0261122189950538
 169    -0.0646034881857230
 170    -0.0176317122100437
 171     0.0157239973861782
 172    -0.0004153197637936
 173    -0.0053730529854405
 174     0.0005676283007926
 175    -0.0018774156536790
 176    -0.0453206826876614
 177    -0.0428911278183731
 178    -0.1060984031724922
 179    -0.0838360592318797
 180    -0.0570558247784863
 181     0.0013123615944110
 182     0.0010920518656876
 183     0.0022748353589660
 184     0.0067418146844520
 Sym= 69A
 Ene= -0.087686
 Spin= Alpha
 Occup= 2.000000
  1     0.0485879131435995
  2    -0.0198020342053549
  3     0.0838786480124900
  4    -0.0326738027647635
  5    -0.0099319891636571
  6     0.0028943666630186
  7     0.0011483799586291
  8     0.0005085015430296
  9    -0.0063111896660227
 10     0.0441105815582872
 11    -0.0191033143800686
 12     0.0330194030381333
 13     0.0022558606389344
 14     0.0059819783762101
 15    -0.0012762547541886
 16    -0.0004817553554247
 17     0.0005884744886872
 18     0.0027895263247074
 19    -0.0026437918403949
 20     0.0109682419037962
 21     0.0600466208155994
 22    -0.0160727462513520
 23     0.0042115330395751
 24    -0.0016269168174267
 25     0.0002499794550428
 26    -0.0008584089614669
 27     0.0034766167727419
 28    -0.0032650089053095
 29     0.0126521450983125
 30    -0.0090748751152060
 31     0.0268776008864198
 32     0.0000093499377797
 33    -0.0000150196657031
 34    -0.0052835590041561
 35    -0.0022969460525453
 36     0.0000243023074766
 37     0.0000013060960150
 38    -0.0366819479285058
 39    -0.0056084417547688
 40     0.0000128117814033
 41    -0.0000155113003179
 42     0.0361784124845980
 43     0.0166989937646667
 44    -0.0000534786690077
 45    -0.0000045226103913
 46    -0.0118822180878619
 47    -0.0129439511054008
 48    -0.0000102604916950
 49     0.0000010673171201
 50    -0.0022530770883552
 51    -0.0428067629642502
 52     0.0000487673804666
 53     0.0002469582255105
 54    -0.0139121599371922
 55     0.0056121250894728
 56    -0.0042554421939569
 57     0.0046440201150908
 58     0.0203559483118974
 59    -0.0149099171309199
 60     0.0069714596554481
 61    -0.0002575418241445
 62    -0.0139406923341530
 63     0.0056091016428014
 64     0.0042222382301993
 65    -0.0046384590382288
 66     0.0203180101796669
 67    -0.0148927331413867
 68    -0.0069422075831000
 69    -0.0026900846514388
 70     0.0040490329351057
 71     0.0051547126993028
 72    -0.0037973266704196
 73    -0.0056615309775752
 74     0.0227282580359811
 75     0.0197706782204050
 76     0.0079854100103970
 77     0.0026925653591198
 78     0.0040568638091061
 79     0.0051658966814904
 80     0.0037971615544988
 81     0.0056445307284575
 82     0.0227328167692523
 83     0.0197758326870146
 84    -0.0080971223210517
 85    -0.0000644237223398
 86     0.0157369301125494
 87     0.0124724003232103
 88     0.0028384985535552
 89     0.0021950997771519
 90    -0.0286670067281185
 91    -0.0108857373354002
 92    -0.0026189800903002
 93     0.0000608865241224
 94     0.0157525757016657
 95     0.0124796964973421
 96    -0.0028319297846140
 97    -0.0021885233222852
 98    -0.0286585089480169
 99    -0.0108766745429158
 100     0.0027309939152669
 101     0.0000028315468398
 102     0.0082129158964046
 103     0.0045003006313311
 104    -0.0000067719204720
 105    -0.0000095459518236
 106    -0.0061582888230567
 107     0.0388084877789981
 108    -0.0000776462236760
 109    -0.0000087598147513
 110    -0.0330643283032757
 111    -0.0153224924797437
 112     0.0000045299368316
 113    -0.0000085322247385
 114    -0.0010567873830041
 115     0.0059171953448520
 116     0.0000692565011301
 117     0.0000217154131472
 118    -0.0370650535426018
 119    -0.0169425998617279
 120    -0.0000301894327230
 121    -0.0000716139445467
 122     0.0071305433228921
 123    -0.0156027692182284
 124    -0.0001081491884785
 125     0.0084450280719947
 126     0.0011819062644652
 127    -0.0081169467298654
 128    -0.0010668497039991
 129    -0.0084248587663271
 130    -0.0011797125403148
 131     0.0081319210664599
 132     0.0010665812103401
 133    -0.0003436020535525
 134    -0.0010537853346953
 135     0.0227767123617395
 136     0.0020021820810592
 137     0.0003411875751550
 138     0.0010527812012262
 139    -0.0227277709291650
 140    -0.0019991907813691
 141    -0.0011268102392110
 142    -0.0002020707815420
 143    -0.0253621573482500
 144    -0.0025518284175058
 145     0.0011271185785666
 146     0.0002035130408151
 147     0.0254187433922963
 148     0.0025539437235661
 149     0.0831270460620685
 150    -0.0444929830393347
 151    -0.0338604991830207
 152     0.0176733430273965
 153    -0.0001102821618760
 154     0.0000103449051708
 155     0.0070887208999344
 156    -0.0173442356728142
 157     0.0000556656763233
 158     0.3804654303739938
 159     0.2099696100585114
 160    -0.2714040785839664
 161    -0.2690605159789299
 162     0.2027381698087995
 163    -0.0052418232139134
 164     0.0139207633288012
 165     0.0090195309821920
 166    -0.0250482506396069
 167     0.5021091128058256
 168     0.3981373595357038
 169    -0.1244609419250654
 170    -0.0291155501530089
 171    -0.2388998487213433
 172     0.0062735667005743
 173    -0.0090808487277189
 174    -0.0088550454480814
 175     0.0294406573170566
 176     0.2691534239452347
 177     0.0960105383444500
 178    -0.0684915054141616
 179     0.0122836130917674
 180     0.0349745299333137
 181    -0.0009216452916764
 182    -0.0131066829663263
 183     0.0200652082184058
 184    -0.0045176950436111
 Sym= 70A
 Ene= -0.085266
 Spin= Alpha
 Occup= 2.000000
  1     0.2372208081241303
  2     0.2218891421157165
  3     0.4011373355885878
  4     0.3560216399743211
  5    -0.1472377734625122
  6    -0.0668301342255233
  7    -0.0257270594213176
  8    -0.0142304226089844
  9    -0.0351878009746122
 10     0.2657097958128770
 11     0.1885518067490456
 12     0.0599271448041856
 13    -0.0426026061215215
 14     0.0531508819259978
 15     0.0276362785369559
 16     0.0255947907873947
 17    -0.0128212738890302
 18     0.0199091124858079
 19    -0.0481383203772951
 20    -0.1405175260279883
 21     0.2057296025208023
 22     0.1859503964079197
 23     0.0938292723826989
 24     0.0377641483101894
 25    -0.0011231972451997
 26     0.0309602429063556
 27     0.0150482016610908
 28    -0.1111785126928159
 29     0.0738275304075136
 30    -0.1517894566972645
 31     0.0724716459550322
 32     0.0002933493340965
 33    -0.0003943512553773
 34    -0.0091812492648422
 35    -0.0155132137617412
 36     0.0003498353783816
 37     0.0000132573323911
 38    -0.1262440646870663
 39     0.0309278865999412
 40    -0.0000078657898638
 41    -0.0000069569659208
 42     0.1329781322742151
 43    -0.0132739137164533
 44    -0.0000427545368495
 45     0.0000067435579037
 46    -0.0920045006544477
 47    -0.0961634531492270
 48     0.0000211371271202
 49     0.0000051900947132
 50    -0.0538065948797634
 51    -0.0043475299572315
 52     0.0000237392924263
 53     0.0132019952637902
 54    -0.0227144077666159
 55    -0.0254942082156401
 56    -0.0152147412027696
 57    -0.0044358731742911
 58     0.0980247803554176
 59     0.0129145571133637
 60     0.0066017083323574
 61    -0.0132029026759172
 62    -0.0228303492584099
 63    -0.0255108655448686
 64     0.0152270833611519
 65     0.0044402193549664
 66     0.0978930323500981
 67     0.0129302889644485
 68    -0.0066491135179324
 69    -0.0133208459702303
 70    -0.0233641355567685
 71     0.0065535085436297
 72    -0.0126215838603208
 73    -0.0106625050058051
 74    -0.0422203659250023
 75     0.0625173169175089
 76     0.0185992200667486
 77     0.0133493513723789
 78    -0.0233466055861990
 79     0.0065667707204245
 80     0.0125231261826117
 81     0.0106499281043494
 82    -0.0422020118809977
 83     0.0625007185735273
 84    -0.0186947227837480
 85     0.0052968738391310
 86     0.0975256714254939
 87     0.0616794840090753
 88     0.0045089800679177
 89     0.0020863537716151
 90    -0.0473100075386295
 91     0.0154898009039110
 92    -0.0119994012464961
 93    -0.0053217869556757
 94     0.0975702045321355
 95     0.0616588635451771
 96    -0.0043792718317505
 97    -0.0020796001738046
 98    -0.0472875963064269
 99     0.0154897358963305
 100     0.0120668129481851
 101     0.0000483965883657
 102     0.0768382012481357
 103     0.0694749953923659
 104    -0.0001062747846178
 105    -0.0000066724480067
 106     0.0179092509638941
 107     0.0019113719549983
 108    -0.0000510919504802
 109    -0.0000915307482243
 110    -0.1211849870394502
 111    -0.1053658088810368
 112     0.0001215479710075
 113     0.0000033713939052
 114     0.1123449819119506
 115    -0.0589377458898979
 116     0.0000870542464345
 117     0.0003041333356308
 118    -0.1670519613196162
 119    -0.1421206189004771
 120    -0.0003993254982104
 121    -0.0000639448873758
 122     0.1151355061096767
 123    -0.0607842131401328
 124    -0.0000482822476360
 125    -0.0131495360764647
 126     0.0002976363477289
 127     0.0163283564044206
 128     0.0004991682920327
 129     0.0131555258398255
 130    -0.0002944003440244
 131    -0.0163397055457982
 132    -0.0005030476530403
 133     0.0085135590837059
 134    -0.0009218723880960
 135     0.0129143468129434
 136    -0.0012963217914117
 137    -0.0085682903805866
 138     0.0009167325460233
 139    -0.0128785975399282
 140     0.0012983016370060
 141    -0.0114383797939671
 142    -0.0008241453033485
 143    -0.0208165713523664
 144    -0.0021224400138935
 145     0.0113911303071112
 146     0.0008255513148333
 147     0.0208531333927869
 148     0.0021262781997463
 149     0.0271803894417369
 150     0.0232697928641672
 151    -0.0527758723810179
 152    -0.0434589872326565
 153    -0.0000865649459576
 154     0.0000237956724987
 155     0.0163839359160027
 156    -0.0088667901061672
 157     0.0000410019915675
 158    -0.0895489884874049
 159     0.0161323380674626
 160     0.1571674712401406
 161    -0.0282286242533483
 162     0.0093385783393998
 163    -0.0026868368435342
 164     0.0013056194737999
 165    -0.0011920512636774
 166     0.0139920366907666
 167    -0.0842619914691612
 168     0.0124767376198344
 169     0.0390545721955892
 170    -0.0107439838507621
 171    -0.0051052080098327
 172     0.0008814014690079
 173    -0.0051801265602555
 174    -0.0006302839019861
 175    -0.0065258189175430
 176     0.0164465873359250
 177    -0.0007271776436217
 178     0.1016902010080114
 179    -0.0226585333613030
 180    -0.0041600397110506
 181     0.0018567234832241
 182    -0.0014520452422997
 183     0.0047157790004066
 184    -0.0074923207795750
 Sym= 71A
 Ene= -0.084857
 Spin= Alpha
 Occup= 2.000000
  1    -0.0542840037872121
  2     0.1899602742155670
  3     0.0155909802238536
  4     0.0409436927264475
  5    -0.0930574588359604
  6    -0.0249707695354194
  7     0.0048859184827381
  8    -0.0287401136687155
  9     0.0017393348924302
 10    -0.2451382405463237
 11    -0.4701391385004687
 12     0.0336807515615590
 13    -0.1125907354901168
 14    -0.2372317788981276
 15    -0.0812685034089883
 16     0.0159633860385873
 17     0.0343970920338484
 18    -0.0175717171361804
 19    -0.1349556385187811
 20    -0.2734667015464902
 21     0.1881852098357275
 22     0.5336904086027593
 23     0.3303358822737540
 24     0.1106257003793433
 25    -0.0447615164311377
 26     0.0127176060917954
 27     0.0160265038817110
 28     0.0621087481515607
 29     0.0403691186724074
 30     0.0016056823375018
 31    -0.0923781404832847
 32    -0.0006205980840020
 33     0.0007859768384897
 34     0.0408965993681323
 35    -0.0266653073322500
 36    -0.0006630715157458
 37    -0.0000224953793264
 38     0.0423939613961050
 39    -0.0082878217115241
 40     0.0000508910451299
 41    -0.0000023235041740
 42    -0.0439051398126140
 43     0.0024114328764489
 44    -0.0000006515492220
 45    -0.0000102355601365
 46     0.0301825728950104
 47     0.0273773022722256
 48    -0.0000456084029630
 49    -0.0000060195039593
 50     0.0163302919441498
 51     0.0031002510302790
 52     0.0000095868456093
 53    -0.0040718880879204
 54     0.0084445674873827
 55     0.0062923055585572
 56     0.0049472953155981
 57     0.0011691665664390
 58    -0.0316487787167888
 59    -0.0026624629982502
 60    -0.0025282567811401
 61     0.0040705051898503
 62     0.0085459439190488
 63     0.0063172449449423
 64    -0.0049883221200360
 65    -0.0011785034104634
 66    -0.0315499510325318
 67    -0.0026677844883669
 68     0.0025843512418859
 69     0.0023312124609519
 70     0.0038037303373907
 71     0.0000334706607296
 72     0.0074181291009171
 73     0.0036132507938890
 74     0.0122938041236759
 75    -0.0199566794426135
 76    -0.0064044129871925
 77    -0.0023936524404190
 78     0.0037942352658111
 79     0.0000249481456383
 80    -0.0072257031469544
 81    -0.0036079783331778
 82     0.0122952258595983
 83    -0.0199502847216868
 84     0.0064173327603641
 85     0.0047564834830697
 86    -0.0251933111554053
 87    -0.0267996602681132
 88    -0.0084106627921700
 89    -0.0005579740007123
 90     0.0155611543585741
 91    -0.0050872720514640
 92     0.0042190866951627
 93    -0.0046998742004906
 94    -0.0252533173607854
 95    -0.0267464733171233
 96     0.0082075624512902
 97     0.0005522530530945
 98     0.0155561467917339
 99    -0.0050906523923938
 100    -0.0042222782432162
 101    -0.0000990634445057
 102    -0.0292110847250365
 103    -0.0122958189970434
 104     0.0002501593854259
 105     0.0000028541158409
 106    -0.0045706756320469
 107    -0.0015652124422189
 108     0.0000128963346785
 109     0.0001531068765368
 110     0.0680360089887719
 111    -0.0031703506549746
 112    -0.0002849743101808
 113    -0.0000056910927450
 114    -0.0357934245211535
 115     0.0170520911516929
 116    -0.0000238283189291
 117    -0.0005854215797803
 118     0.0815736344236826
 119     0.0061145751339582
 120     0.0007440885780134
 121     0.0000240916711739
 122    -0.0374382270199370
 123     0.0179524703841720
 124     0.0000171062963410
 125     0.0027302128466863
 126    -0.0004596332096206
 127    -0.0040082072467262
 128    -0.0000400415747399
 129    -0.0027180266765648
 130     0.0004569538040907
 131     0.0040343341990484
 132     0.0000433719114828
 133     0.0026333158791294
 134     0.0008948724999829
 135    -0.0044449763498292
 136     0.0003727688039687
 137    -0.0025367405811057
 138    -0.0008873855109239
 139     0.0044408774272781
 140    -0.0003727734401458
 141     0.0000788802949244
 142     0.0007502746043310
 143     0.0070605562545829
 144     0.0007417122031896
 145     0.0000142797136575
 146    -0.0007486101759124
 147    -0.0070627559034819
 148    -0.0007421075464883
 149    -0.0092468067585589
 150    -0.0063964668729425
 151     0.0199546030653117
 152     0.0129820275738200
 153     0.0000262780021750
 154    -0.0000124258236615
 155    -0.0048098739465440
 156     0.0024354715766462
 157    -0.0000156239850461
 158     0.0287570648547605
 159    -0.0121602482055173
 160    -0.0515950624891438
 161     0.0207174819627581
 162     0.0017867964458100
 163     0.0030641340725809
 164    -0.0011209607246222
 165     0.0009808092022200
 166    -0.0046477052292983
 167     0.0251037771999542
 168    -0.0088430249689807
 169    -0.0113795097162060
 170     0.0015070785993351
 171    -0.0001031951646293
 172    -0.0010817520093606
 173     0.0023603958399552
 174     0.0005245933600587
 175     0.0019827137313576
 176    -0.0081420636584443
 177     0.0060977940844588
 178    -0.0343877008125364
 179     0.0139832704310241
 180    -0.0017198983911372
 181    -0.0020235034007553
 182     0.0002206452151253
 183    -0.0022714292141520
 184     0.0026740690713691
 Sym= 72A
 Ene= -0.084599
 Spin= Alpha
 Occup= 2.000000
  1     0.0232656373582505
  2     0.1913430612502449
  3     0.0108343220957953
  4     0.4328723523715081
  5    -0.3155062023043028
  6    -0.0930989412023542
  7    -0.0355829725264668
  8    -0.0122466340485149
  9     0.0005746227194715
 10     0.0576015261609011
 11     0.4050546416315952
 12     0.0192450355518460
 13    -0.1086476289033744
 14     0.2550164271422951
 15     0.0757542198864431
 16     0.0067811132741490
 17    -0.0309667678803983
 18     0.0028347487683542
 19     0.0470181295648719
 20    -0.1729832219669566
 21    -0.0157557573048087
 22    -0.0228897209693097
 23     0.0608091511085894
 24     0.0138674513607068
 25     0.0022007025545370
 26     0.0147630798446858
 27    -0.0034141122987315
 28     0.0422125336071981
 29    -0.1285842469563868
 30     0.0697034860017071
 31    -0.1331599598927408
 32     0.0004047309759439
 33    -0.0004904147795008
 34     0.0493206083135487
 35     0.0504173180694770
 36     0.0004065759950870
 37     0.0000121456579682
 38     0.1323554898592893
 39    -0.0270388577172205
 40    -0.0000633546902250
 41     0.0000177790227213
 42    -0.1383473900627568
 43     0.0094101686869630
 44     0.0000761120305731
 45     0.0000057652788471
 46     0.0829360394507106
 47     0.0891849869174943
 48     0.0000361194787753
 49     0.0000007816275505
 50     0.0471429761951287
 51     0.0107532531303933
 52    -0.0000591229981700
 53    -0.0118568922056356
 54     0.0291659133612949
 55     0.0222590455349385
 56     0.0144629656894012
 57     0.0030492727335038
 58    -0.0975773987192451
 59    -0.0094681513316056
 60    -0.0072195452527785
 61     0.0118633631177505
 62     0.0292126358818094
 63     0.0222487824754261
 64    -0.0144173262249070
 65    -0.0030441770542124
 66    -0.0975032896858040
 67    -0.0094877139357553
 68     0.0072007598423360
 69     0.0136033236838566
 70     0.0168773583845040
 71    -0.0111163251792403
 72     0.0126808669344788
 73     0.0111741222770550
 74     0.0380742932726155
 75    -0.0604688814033979
 76    -0.0197256784267659
 77    -0.0135600120299521
 78     0.0168623553349270
 79    -0.0111253717909873
 80    -0.0128069616712648
 81    -0.0111568270695415
 82     0.0380449508250247
 83    -0.0604543086773160
 84     0.0198760807844132
 85    -0.0055149185975989
 86    -0.0930968602333799
 87    -0.0583024666799350
 88    -0.0044595326133218
 89    -0.0016994825018089
 90     0.0491445743363456
 91    -0.0177190746316596
 92     0.0130587036693186
 93     0.0054727376686662
 94    -0.0930850056696054
 95    -0.0583520182606065
 96     0.0045538851744812
 97     0.0016941007118209
 98     0.0491154387897325
 99    -0.0177193572364447
 100    -0.0131828486936141
 101     0.0000646218924675
 102    -0.0661286226700972
 103    -0.0611832586982599
 104    -0.0001831198353469
 105     0.0000103320561812
 106    -0.0109169909567431
 107    -0.0059154918366934
 108     0.0000827943740606
 109    -0.0000807746906491
 110     0.1211758865563805
 111     0.1062999402390251
 112     0.0002104817153889
 113     0.0000020732248191
 114    -0.1106407897366984
 115     0.0527131078166305
 116    -0.0001161891378265
 117     0.0003596709628319
 118     0.1569933290843855
 119     0.1349533297917028
 120    -0.0004412259619801
 121     0.0000929260194982
 122    -0.1176648803633761
 123     0.0563004418814343
 124     0.0000952890029796
 125     0.0106025149977490
 126    -0.0003685044142809
 127    -0.0136308276458895
 128    -0.0003929337253314
 129    -0.0106326856386778
 130     0.0003671687928731
 131     0.0136069999982753
 132     0.0003939887781639
 133    -0.0083526985328732
 134     0.0011758220137739
 135    -0.0128792785722858
 136     0.0013012449662169
 137     0.0082972946022148
 138    -0.0011787629691423
 139     0.0128185218863970
 140    -0.0013048458109434
 141     0.0113045401450048
 142     0.0007924092716777
 143     0.0209341622079165
 144     0.0022064571903621
 145    -0.0113654285906091
 146    -0.0007998938932858
 147    -0.0209996452376102
 148    -0.0022124335596749
 149    -0.0323233800539772
 150    -0.0185541611920694
 151     0.0711615055201454
 152     0.0367388350580014
 153     0.0001478429295608
 154    -0.0000516594984150
 155    -0.0125664232054424
 156     0.0067624482488324
 157    -0.0000672546294998
 158     0.0983327720374512
 159    -0.0658352103705386
 160    -0.1770652635282507
 161     0.1089568906732887
 162     0.0295625364499071
 163     0.0186466407840114
 164    -0.0065079833905383
 165     0.0053452872334144
 166    -0.0159532840114527
 167     0.0837490743856180
 168    -0.0456605642482869
 169    -0.0360709284184061
 170    -0.0050185944938306
 171    -0.0081992871116129
 172    -0.0064986105469575
 173     0.0099088678937284
 174     0.0029217947835903
 175     0.0066449358054472
 176    -0.0317200915033206
 177     0.0428113999740018
 178    -0.1183551440264137
 179     0.0693693471112779
 180    -0.0215093577191014
 181    -0.0123534724503106
 182    -0.0004195807342041
 183    -0.0101321715593055
 184     0.0093414845824611
 Sym= 73A
 Ene= -0.084088
 Spin= Alpha
 Occup= 2.000000
  1    -0.0090113108405785
  2     0.0147545280852466
  3    -0.0163955573929240
  4     0.0308631610264803
  5    -0.0315982979716775
  6    -0.0076268826257162
  7    -0.0025605197945772
  8    -0.0013905008898474
  9     0.0017883295461701
 10    -0.0108936381173020
 11     0.0232340638301197
 12     0.0016745657089017
 13    -0.0135097584580321
 14     0.0204666006515431
 15     0.0049382826218375
 16    -0.0002813041753125
 17    -0.0019319261596111
 18    -0.0010329558701167
 19     0.0056978057618739
 20    -0.0196791878324618
 21    -0.0059191732819692
 22     0.0012407270041955
 23     0.0111897559049184
 24     0.0024773977695668
 25    -0.0009306100667657
 26     0.0002793021806348
 27    -0.0007414948917300
 28     0.0131748397231664
 29    -0.0173248783094923
 30     0.0177001908572969
 31    -0.0218438593405437
 32     0.0000104784908342
 33    -0.0000168173234945
 34     0.0072389500997123
 35     0.0057654083689497
 36     0.0000126546183975
 37    -0.0000044333143082
 38     0.0175678014343355
 39    -0.0024291904670156
 40     0.0000259664086660
 41    -0.0000675960785042
 42    -0.0174287506252528
 43    -0.0015355897134440
 44    -0.0001922307509762
 45    -0.0000208302824896
 46     0.0162892096063193
 47     0.0154594224297563
 48    -0.0000424845236126
 49    -0.0000050758592235
 50     0.0151489649111561
 51     0.0091164382312313
 52     0.0001732209194313
 53    -0.0020663991231272
 54     0.0016392805866421
 55     0.0020471157987648
 56     0.0023194520136688
 57     0.0001538471739600
 58    -0.0151308637644310
 59     0.0018454016192214
 60    -0.0015263398059729
 61     0.0020224965321964
 62     0.0014664245536571
 63     0.0020370759472993
 64    -0.0024726374922521
 65    -0.0001364535170860
 66    -0.0153098831359814
 67     0.0019198301508862
 68     0.0016728772156905
 69     0.0017267787355797
 70     0.0037842084630531
 71     0.0001397817951928
 72     0.0017480539234712
 73     0.0029675934006288
 74    -0.0010133175863113
 75    -0.0169601236672148
 76    -0.0016823498668265
 77    -0.0017204800258910
 78     0.0037853647862515
 79     0.0001598249162675
 80    -0.0017296302585193
 81    -0.0030450446465234
 82    -0.0010082016194756
 83    -0.0169434726991795
 84     0.0012233954001198
 85    -0.0005661290944934
 86    -0.0156909267836541
 87    -0.0107193045841207
 88    -0.0007842216760114
 89    -0.0033357843277660
 90     0.0139011909084376
 91     0.0094955061615951
 92    -0.0020330615371144
 93     0.0005549601215263
 94    -0.0156734169199537
 95    -0.0107104819026909
 96     0.0007571371676427
 97     0.0033725154278621
 98     0.0139436148522457
 99     0.0095672777112635
 100     0.0025050271730532
 101     0.0000012502427667
 102    -0.0134829195258991
 103    -0.0111557507891379
 104    -0.0000062073533883
 105    -0.0000538035253992
 106    -0.0133030120761965
 107    -0.0125458565030293
 108    -0.0003392615952875
 109    -0.0000053377516544
 110     0.0207495520814052
 111     0.0161025411483034
 112     0.0000059712166085
 113     0.0000096477756552
 114    -0.0038019217689352
 115     0.0220189652391102
 116     0.0003488899830247
 117     0.0000123744420624
 118     0.0282451090809652
 119     0.0218498504873890
 120    -0.0000107139820775
 121    -0.0004038233427440
 122     0.0045634685660491
 123     0.0314540271292228
 124    -0.0006231336849823
 125    -0.0000215559003416
 126    -0.0003528323011031
 127     0.0000959879331473
 128     0.0005278478897547
 129     0.0001030425629906
 130     0.0003608919626829
 131    -0.0000398657335805
 132    -0.0005292563120497
 133    -0.0008212021594713
 134     0.0002273955867127
 135    -0.0123042850306712
 136    -0.0009752779308867
 137     0.0008297728234746
 138    -0.0002269206853410
 139     0.0125273388301470
 140     0.0009891347844530
 141     0.0012924307021992
 142     0.0001047052620717
 143     0.0131139826170190
 144     0.0008994606138180
 145    -0.0012806706164972
 146    -0.0001040750225293
 147    -0.0128888687449515
 148    -0.0008841070049366
 149    -0.0694325401962793
 150     0.0215203552181348
 151    -0.0598618363866463
 152     0.0344392804046453
 153    -0.0006754507931393
 154     0.0003630401972166
 155    -0.0265413251341821
 156    -0.0199795171240364
 157     0.0004346522507971
 158     0.0086836801672678
 159     0.2046661590762982
 160     0.0937822642190030
 161    -0.0957462642078826
 162    -0.1034546247565321
 163    -0.0332865145197262
 164    -0.0028534756998162
 165    -0.0328590025900615
 166     0.0051764887276032
 167     0.2359227139456524
 168    -0.4295465262202905
 169     0.0386820400447754
 170     0.1031524131517042
 171    -0.2195229296639549
 172    -0.0757222245037249
 173    -0.0222458227207555
 174     0.0317985038601436
 175     0.0170408766099677
 176     0.1692434663398782
 177    -0.2833433695378192
 178     0.2620803624993934
 179    -0.5445968201638283
 180     0.3228021645453565
 181     0.1113281076191641
 182     0.0435321087528703
 183     0.0165145946789710
 184    -0.0223416089231195
 Sym= 74A
 Ene= -0.083970
 Spin= Alpha
 Occup= 2.000000
  1    -0.0199194809698120
  2     0.0260989775877231
  3    -0.0360140319024200
  4     0.0563135920850852
  5    -0.0608503824000942
  6    -0.0141634807178235
  7    -0.0046700839692830
  8    -0.0026641943723451
  9     0.0038939820458667
 10    -0.0251860735067263
 11     0.0425073373881861
 12     0.0033265248243949
 13    -0.0261961262945239
 14     0.0399370604109189
 15     0.0092690074091435
 16    -0.0008640994721972
 17    -0.0036012233479290
 18    -0.0023524458512181
 19     0.0115265698222005
 20    -0.0376363237196801
 21    -0.0121641523986339
 22     0.0006587062413505
 23     0.0210381513763642
 24     0.0045039705539185
 25    -0.0019175820453126
 26     0.0000974035072468
 27    -0.0015115826026976
 28     0.0287275631525756
 29    -0.0358133022139239
 30     0.0369588474083732
 31    -0.0437830107862309
 32     0.0000272403380370
 33    -0.0000268379289183
 34     0.0142989478713604
 35     0.0117143295587622
 36     0.0000206703965323
 37     0.0000001560626943
 38     0.0374072730113189
 39    -0.0119488937329620
 40    -0.0000075047402656
 41     0.0000002006591816
 42    -0.0394250443575866
 43     0.0080811679898659
 44     0.0000075252471881
 45    -0.0000012856338448
 46     0.0323510938591415
 47     0.0325637851839690
 48     0.0000005333815400
 49    -0.0000004588660711
 50     0.0221143305470712
 51    -0.0090238991370384
 52    -0.0000027989086359
 53    -0.0048860187860236
 54     0.0042082539991893
 55     0.0100720376224531
 56     0.0045267077898011
 57     0.0028341116402752
 58    -0.0316594664487775
 59    -0.0075257418591955
 60    -0.0007237218473798
 61     0.0048844747389690
 62     0.0042326277537643
 63     0.0100721128573087
 64    -0.0045277030828654
 65    -0.0028324257426209
 66    -0.0316298298297931
 67    -0.0075273435765269
 68     0.0007359445857590
 69     0.0040002595311031
 70     0.0092712556163929
 71    -0.0006204164874520
 72     0.0039160748510596
 73     0.0025730802580012
 74     0.0208158556308528
 75    -0.0197671031871173
 76    -0.0050257773449329
 77    -0.0039964138356092
 78     0.0092667797610078
 79    -0.0006220308089588
 80    -0.0039222246344236
 81    -0.0025732638085148
 82     0.0208076274277389
 83    -0.0197605059305536
 84     0.0050391200083907
 85    -0.0013509295029335
 86    -0.0324502962521680
 87    -0.0212307372147659
 88    -0.0015564998969018
 89    -0.0001536493086471
 90     0.0097490770224385
 91    -0.0062298095455933
 92     0.0038169384026154
 93     0.0013462042854828
 94    -0.0324525794226882
 95    -0.0212350806074473
 96     0.0015522152441910
 97     0.0001536501671292
 98     0.0097427819496451
 99    -0.0062258232960366
 100    -0.0038211455191672
 101     0.0000043241765751
 102    -0.0274318300141867
 103    -0.0238798910496473
 104    -0.0000181024183973
 105    -0.0000010520728117
 106    -0.0115525575307755
 107     0.0095966310207236
 108    -0.0000015698730322
 109    -0.0000011167499201
 110     0.0414071711312956
 111     0.0332341437500209
 112     0.0000195774923292
 113    -0.0000049034581177
 114    -0.0420444162203053
 115     0.0222080299895288
 116    -0.0000177992431251
 117     0.0000193571671646
 118     0.0568189567208795
 119     0.0455231345778705
 120    -0.0000196678092245
 121    -0.0000088413055244
 122    -0.0372459753949074
 123     0.0152812338959476
 124    -0.0000177104086560
 125     0.0062471647563337
 126     0.0000560155743380
 127    -0.0072437858764470
 128    -0.0002932549361155
 129    -0.0062488531673157
 130    -0.0000563139487452
 131     0.0072447743206688
 132     0.0002939880382072
 133    -0.0025759282878166
 134     0.0001578387310680
 135    -0.0004351028360988
 136     0.0008184921519725
 137     0.0025745451597720
 138    -0.0001577192577597
 139     0.0004320244128471
 140    -0.0008185463393908
 141     0.0034218964147041
 142     0.0002887990474292
 143     0.0027312347680832
 144     0.0003337631250856
 145    -0.0034250730990603
 146    -0.0002904627647620
 147    -0.0027340587613968
 148    -0.0003344192588175
 149     0.0499877367055870
 150    -0.0431096342909967
 151    -0.0325817051544533
 152     0.0476709182905602
 153    -0.0000582625969341
 154     0.0000222732942391
 155    -0.0313069664350454
 156     0.0303715689177218
 157    -0.0000310704055543
 158    -0.1369122815974458
 159     0.2617021650097215
 160     0.2035126219869743
 161    -0.5382355000685896
 162    -0.3340232746594959
 163    -0.1094504680232377
 164     0.0438476581824193
 165    -0.0144790156682215
 166     0.0165995415155748
 167    -0.2070255338758108
 168     0.4681949621867317
 169     0.0286535284057958
 170     0.1015608574607756
 171     0.2562123321989299
 172     0.0850752908072970
 173    -0.0186993574759651
 174    -0.0353708454450187
 175    -0.0143293206598000
 176    -0.0195468866964217
 177    -0.1898987317370493
 178     0.0548872707362908
 179    -0.0394760760972422
 180     0.0782450799001493
 181     0.0244141361839442
 182    -0.0053718172285352
 183     0.0294060712298937
 184    -0.0022616427934821
 Sym= 75A
 Ene= -0.078330
 Spin= Alpha
 Occup= 2.000000
  1    -0.0011282138886494
  2    -0.0010031117511698
  3    -0.0019660881276790
  4    -0.0017121176299428
  5     0.0006056523864199
  6     0.0014332103858696
  7     0.0003744208901688
  8     0.0002200974881655
  9    -0.0001577556424253
 10     0.0023439141773315
 11     0.0020617206596547
 12    -0.0000066113610067
 13     0.0000087040194180
 14     0.0006431426534049
 15     0.0014379368184102
 16     0.0000016555148080
 17    -0.0004439160375468
 18    -0.0001525125968251
 19    -0.0011424994225040
 20    -0.0009899159694609
 21     0.0019778939383818
 22     0.0017074562963825
 23     0.0005866841739590
 24     0.0014313046032917
 25    -0.0003728756063836
 26     0.0002211737660313
 27    -0.0001559585994547
 28    -0.0000143772032348
 29     0.0000141122034628
 30    -0.0000250304268714
 31     0.0000276422269741
 32     0.0073534348193818
 33     0.0000758180091786
 34    -0.0000041597126961
 35     0.0000006243040474
 36     0.0001118575243760
 37     0.0001389659052342
 38     0.0000249389419317
 39    -0.0000076600566909
 40    -0.0086052655465102
 41    -0.0056077937790821
 42     0.0000756801174604
 43     0.0000090677863377
 44    -0.0231395036121174
 45    -0.0013182011530459
 46    -0.0000184875855111
 47    -0.0000074655347081
 48     0.0036359922747266
 49    -0.0003048769823157
 50    -0.0000164035549254
 51    -0.0000233819535228
 52     0.0173702843806436
 53     0.0022656705167740
 54    -0.5067245326876206
 55     0.0068040291945845
 56    -0.0061621832516876
 57    -0.0031889136982096
 58    -0.4888336304778797
 59    -0.0093554355439003
 60     0.0021863768376077
 61     0.0022700196982601
 62     0.5067552936581010
 63    -0.0067803995203346
 64    -0.0063524462336041
 65    -0.0031911883807782
 66     0.4889297399497817
 67     0.0093433767904424
 68     0.0019979897985642
 69    -0.0093358132600239
 70     0.0066240663993297
 71    -0.0074650566186630
 72    -0.0130773039518090
 73     0.0088164314289762
 74     0.0044924004018011
 75     0.0095073553223010
 76    -0.0286095004308418
 77    -0.0093384384572834
 78    -0.0066298926486548
 79     0.0074458083829909
 80    -0.0130767689306644
 81     0.0088372147199636
 82    -0.0044965500582086
 83    -0.0094565661844402
 84    -0.0286325147066379
 85     0.0027672643586053
 86    -0.0001017707858090
 87     0.0023087451865932
 88     0.0089082597942986
 89    -0.0043416664128727
 90    -0.0033656210452315
 91    -0.0017982652153848
 92     0.0235018762596549
 93     0.0027674017823058
 94     0.0001126473410947
 95    -0.0022973485307735
 96     0.0089076798488186
 97    -0.0043543131633619
 98     0.0032962865552157
 99     0.0018061356248139
 100     0.0235102996712707
 101    -0.0049960226312279
 102     0.0000159237767353
 103     0.0000090698287362
 104    -0.0080038782647299
 105     0.0077278997768598
 106     0.0000042931219399
 107     0.0000181609205293
 108    -0.0197803291130506
 109     0.0050304040016823
 110    -0.0000063857330085
 111    -0.0000064659541250
 112     0.0058178663278178
 113    -0.0123653462588017
 114     0.0000207960282469
 115    -0.0000350670435392
 116     0.0159943772643308
 117    -0.0013328353186096
 118    -0.0000149925270465
 119    -0.0000107115247296
 120    -0.0023663854048467
 121     0.0020141824633191
 122     0.0000299140832844
 123    -0.0000512080195752
 124    -0.0079059841098604
 125     0.0037598745826845
 126     0.0014980327270478
 127    -0.0000854964180628
 128    -0.0013551799688651
 129     0.0037452874913776
 130     0.0014947440411198
 131    -0.0000740020249016
 132    -0.0013532784199338
 133    -0.0065882064145638
 134    -0.0090945925658657
 135     0.0171651491421669
 136     0.0078035446284428
 137    -0.0065810162749149
 138    -0.0090916183983924
 139     0.0171380327293507
 140     0.0078039823210777
 141    -0.0016176571526403
 142     0.0006671486541726
 143     0.0075203157813530
 144    -0.0001094233210828
 145    -0.0016242157315512
 146     0.0006660927746773
 147     0.0075584487155374
 148    -0.0001065670049712
 149     0.0000488024386310
 150     0.0000216969092208
 151    -0.0000262135341022
 152    -0.0000081961476384
 153    -0.0195334595136020
 154    -0.0016551501932918
 155     0.0000022196534905
 156    -0.0000129832504722
 157     0.0009644337692969
 158    -0.0033972773302334
 159     0.0030050168157759
 160     0.0059095911219401
 161    -0.0051561547073706
 162    -0.0015570331861668
 163    -0.0044170120150230
 164     0.0011417616467299
 165    -0.0006665770219220
 166    -0.0003029532440592
 167     0.0067703545530616
 168    -0.0060017435001224
 169     0.0000055930726997
 170     0.0000103917995585
 171    -0.0016391912019342
 172    -0.0044177928872303
 173    -0.0000038432625574
 174     0.0013393686662166
 175    -0.0003122688693818
 176    -0.0033496634506474
 177     0.0029423496160522
 178    -0.0058158057138625
 179     0.0050676043729288
 180    -0.0015174631559742
 181    -0.0044067884076076
 182    -0.0011378076779783
 183    -0.0006597801385792
 184    -0.0003120388211802
 Sym= 76A
 Ene= -0.077858
 Spin= Alpha
 Occup= 2.000000
  1     0.0150822076718862
  2    -0.0013674558489501
  3     0.0298162153614767
  4    -0.0062199261743104
  5     0.0235570332095428
  6     0.0017243109828460
  7     0.0001972749893753
  8     0.0007107785915826
  9    -0.0033317164885542
 10     0.0201473244549981
 11    -0.0036456753178545
 12    -0.0131632982800729
 13     0.0163970922938737
 14    -0.0140684933720052
 15    -0.0009809270154174
 16     0.0039181108367832
 17     0.0003091328287825
 18     0.0019782218012915
 19    -0.0194233121652034
 20     0.0179180814846879
 21     0.0042178402620470
 22     0.0075893306540654
 23    -0.0095382995426534
 24    -0.0006589068822406
 25     0.0024498439329397
 26     0.0038536508980705
 27     0.0013341970174345
 28    -0.0403872244884129
 29     0.0434319549822374
 30    -0.0548206087249125
 31     0.0583712884484887
 32    -0.0000005104616162
 33    -0.0000039692329185
 34    -0.0084115086530645
 35    -0.0061912825775609
 36     0.0000050069363902
 37     0.0000019028480010
 38     0.0337348009866799
 39    -0.0104828904837209
 40    -0.0000061799728448
 41     0.0000064530670148
 42    -0.0453606576568976
 43     0.0191450202948415
 44     0.0000253553072638
 45     0.0000016320135080
 46    -0.0326054851285255
 47    -0.0181259768166321
 48     0.0000038332740742
 49     0.0000004546297960
 50    -0.0646350294157136
 51    -0.0635466545681485
 52    -0.0000079323125721
 53     0.0028614378128071
 54     0.0293460289128891
 55     0.0074822764499913
 56    -0.0010941051923581
 57     0.0010482290322458
 58    -0.0056031237493002
 59    -0.0241246059017918
 60     0.0024647238473129
 61    -0.0028581980054911
 62     0.0292955105779891
 63     0.0074856949990966
 64     0.0010908056200061
 65    -0.0010475469641770
 66    -0.0056461251674250
 67    -0.0241365320313605
 68    -0.0024668824749857
 69     0.0031494882971634
 70    -0.0148372338067002
 71    -0.0175966029708317
 72     0.0032157127274067
 73    -0.0167550228056332
 74     0.0641994979290983
 75     0.0650720867368290
 76    -0.0298505489219576
 77    -0.0031499439203962
 78    -0.0148367616308203
 79    -0.0175966825345961
 80    -0.0032228529823120
 81     0.0167599199984397
 82     0.0641743741684118
 83     0.0651062228839355
 84     0.0298984865141516
 85    -0.0008915908489863
 86     0.0153253401347168
 87     0.0141615211054529
 88    -0.0014516781871079
 89     0.0483055197980221
 90    -0.0682418938904574
 91    -0.1258756279671183
 92     0.0648400233943677
 93     0.0008939583631904
 94     0.0153241670058529
 95     0.0141588602076902
 96     0.0014590046674030
 97    -0.0483108133219729
 98    -0.0682608290293102
 99    -0.1258898543463191
 100    -0.0648678076977149
 101     0.0000001218873035
 102     0.0311942767891039
 103     0.0213488324780378
 104     0.0000077970331411
 105    -0.0000024037022023
 106     0.1166016199857817
 107     0.1304780805911734
 108     0.0000287712875821
 109    -0.0000025325663000
 110    -0.0124409208812683
 111    -0.0092994472185926
 112    -0.0000019818377093
 113    -0.0000024540520257
 114    -0.2201736372224395
 115    -0.2411542524832318
 116    -0.0000342384915904
 117     0.0000025769944961
 118    -0.0316738323862055
 119    -0.0234026802825158
 120    -0.0000057645397788
 121     0.0000350584920161
 122    -0.2981154540814585
 123    -0.3267143859315659
 124     0.0000394708341516
 125     0.0104990526418019
 126     0.0022152827735047
 127    -0.0147718829488745
 128    -0.0053929257744579
 129    -0.0105056575545380
 130    -0.0022156771911606
 131     0.0147732867925568
 132     0.0053946597984641
 133    -0.0019823313615125
 134     0.0001583355984791
 135     0.1008386146073018
 136     0.0113723332444547
 137     0.0019812509356089
 138    -0.0001577686821100
 139    -0.1008715078096041
 140    -0.0113747389478665
 141     0.0027036534952327
 142     0.0002395615601133
 143    -0.0875950952066688
 144    -0.0036053926792481
 145    -0.0027041621509962
 146    -0.0002381714072743
 147     0.0875720781973901
 148     0.0036010699717333
 149     0.3225076589923371
 150     0.1771246419036906
 151     0.2946662769369364
 152     0.1612534030772739
 153     0.0000376545866927
 154    -0.0000321047778548
 155    -0.0638752589580964
 156    -0.0700259800964709
 157    -0.0000400810207840
 158     0.0661342520574356
 159     0.1314932604863309
 160    -0.0327792505649621
 161     0.0615138105098105
 162    -0.0545605446459022
 163    -0.0035224162716583
 164     0.0150154423018579
 165     0.0214385249103084
 166    -0.0079803418221070
 167    -0.2125896704396047
 168    -0.0435240520210537
 169     0.0284145011284261
 170     0.1009422662774022
 171    -0.1875491057876376
 172    -0.0124791152893243
 173     0.0181359102383064
 174     0.0083378082576821
 175    -0.0276715328685501
 176    -0.1256015755953381
 177     0.0110639308373225
 178    -0.2425727934945172
 179    -0.0714829565922413
 180     0.2415125373609864
 181     0.0167409078208479
 182     0.0052442913180974
 183     0.0125276491486344
 184     0.0358003713061638
 Sym= 77A
 Ene= -0.074660
 Spin= Alpha
 Occup= 2.000000
  1    -0.0123215685604901
  2     0.0040791201393310
  3    -0.0609779229156663
  4     0.0072331846236081
  5     0.0278081372033167
  6    -0.0024645234643651
  7     0.0089391674471877
  8     0.0015646013481835
  9    -0.0070962366081089
 10    -0.0372378094353855
 11     0.0050874131989149
 12     0.1095882097085932
 13    -0.0469540457761132
 14    -0.0179885697643045
 15     0.0012774918129028
 16    -0.0230987752165801
 17     0.0053428428165155
 18     0.0044203926785987
 19     0.1214880561575439
 20    -0.0678038668437941
 21     0.0446604355515584
 22    -0.0355914644653605
 23    -0.0102076158797619
 24     0.0008516156255522
 25    -0.0122313661773842
 26    -0.0277051510386411
 27     0.0026904481711401
 28     0.1923557160180540
 29    -0.4241498167151199
 30     0.2450151062403059
 31    -0.5387124278147132
 32     0.0000664129922905
 33    -0.0000796755470874
 34     0.0141885909105148
 35     0.0109548668822801
 36     0.0000025566402098
 37     0.0000028552710614
 38    -0.1899648181823717
 39    -0.0201445561459890
 40     0.0000313803253051
 41     0.0000007022011015
 42     0.1967347950678379
 43     0.0309541059443733
 44    -0.0000261027971836
 45    -0.0000009430617415
 46     0.0692975779302620
 47     0.0310176792627053
 48    -0.0000029821920908
 49     0.0000074365661828
 50     0.0258287604962564
 51    -0.1003524574113809
 52     0.0000077680327921
 53    -0.0078708821591892
 54    -0.1118818241317948
 55     0.0165926811720289
 56     0.0001103270054735
 57     0.0140748667203272
 58     0.0836922716317308
 59    -0.0298425769713504
 60     0.0104188007857120
 61     0.0078681248393540
 62    -0.1119113291240153
 63     0.0165920694519621
 64    -0.0000529685727223
 65    -0.0140732337897690
 66     0.0836406271711191
 67    -0.0298424398667973
 68    -0.0104614410220526
 69    -0.0141627933062760
 70     0.0669395094820367
 71     0.0671004798684488
 72    -0.0143170783162195
 73    -0.0212266339748792
 74     0.0173515279635465
 75     0.0532806555560826
 76     0.0221561314486737
 77     0.0141685961664240
 78     0.0669507599576097
 79     0.0671013734298994
 80     0.0143398439521170
 81     0.0212185461370409
 82     0.0173864401872641
 83     0.0532513488508879
 84    -0.0221870685844412
 85     0.0044269571274321
 86    -0.0119150812313576
 87    -0.0160457125820140
 88     0.0071936849585858
 89     0.0111019482931993
 90    -0.1035213269374986
 91     0.0264136079629627
 92    -0.0056164454783967
 93    -0.0044398462667480
 94    -0.0119029385737864
 95    -0.0160239931918852
 96    -0.0071934721205234
 97    -0.0110936189417085
 98    -0.1034838887269785
 99     0.0263872774737570
 100     0.0056162606176054
 101     0.0000015696059189
 102    -0.0908146050694680
 103    -0.0649384921226745
 104    -0.0000248182826480
 105    -0.0000053528108603
 106    -0.0505447923933112
 107     0.0918712670744245
 108    -0.0000400234165788
 109     0.0000018824033770
 110    -0.0324151619632374
 111    -0.0254278155488126
 112    -0.0000061215523013
 113     0.0000040195501032
 114     0.0646293764368813
 115    -0.0825177451562376
 116     0.0000462694877801
 117     0.0000044928495709
 118     0.0364962284057875
 119     0.0283252154590826
 120    -0.0000003259021416
 121    -0.0000428295102959
 122     0.1056710244517007
 123    -0.1372197051291314
 124     0.0000107773154552
 125     0.0165240379968498
 126     0.0000781176864321
 127    -0.0177626769113758
 128    -0.0015822014316740
 129    -0.0165311834681159
 130    -0.0000803606499597
 131     0.0177565342714423
 132     0.0015799692738023
 133     0.0037652301216036
 134    -0.0042985589284787
 135     0.0345999015243141
 136     0.0010699758250259
 137    -0.0037649975585452
 138     0.0043001287514560
 139    -0.0345950601921481
 140    -0.0010703829989611
 141    -0.0083449522885659
 142    -0.0005219875782022
 143    -0.0404284630471450
 144    -0.0034170125640432
 145     0.0083439039229727
 146     0.0005111484835751
 147     0.0404403549584607
 148     0.0034201226230842
 149     0.1891234589041882
 150     0.1102760597366754
 151    -0.1455353138252653
 152    -0.0848566271833968
 153    -0.0000221341046572
 154     0.0000311060754357
 155     0.0243218854536178
 156    -0.0317834603843704
 157     0.0000165382833881
 158    -0.0454748366993460
 159     0.0137392565685328
 160     0.1031818599161641
 161     0.0254062378518727
 162     0.0972756408482321
 163     0.0014439323430656
 164    -0.0000869333219052
 165     0.0068299913893154
 166     0.0162944177887174
 167    -0.0962782626518763
 168    -0.0128082675917481
 169    -0.0196838459084600
 170    -0.0404114785984936
 171    -0.0832391401312321
 172    -0.0010464286446076
 173    -0.0094485491810187
 174     0.0029898450843006
 175    -0.0139782441983984
 176     0.0353374235326828
 177     0.0607705599017797
 178    -0.0020119573515669
 179    -0.0325468995188429
 180    -0.0139366647295117
 181    -0.0001780842730531
 182    -0.0082892831825610
 183     0.0134602951182041
 184    -0.0023028144402465
 Sym= 78A
 Ene= -0.074116
 Spin= Alpha
 Occup= 2.000000
  1     0.0008074610415028
  2    -0.4951554702784858
  3    -0.0008653446955234
  4     0.2859146258558737
  5     0.0004386308174649
  6    -0.0003914381339491
  7     0.0368956754725249
  8    -0.0643429339056343
  9    -0.0001895938765192
 10    -0.0001703014767203
 11     0.0000567565625927
 12     0.0011680602562522
 13    -0.5755357758425843
 14    -0.0011048764312892
 15     0.0000921782153339
 16    -0.0739796634444481
 17     0.0001583439089831
 18     0.0002350374815596
 19     0.0020641752115945
 20     0.4938677904439931
 21     0.0009843027424034
 22     0.2851023516018122
 23     0.0006524352516824
 24     0.0002913271131504
 25     0.0364265154801705
 26     0.0638448707757466
 27    -0.0000460159204647
 28     0.0034666656181792
 29    -0.0103499675824566
 30     0.0027181509761816
 31    -0.0066309786997565
 32     0.0000022791640388
 33    -0.0000029259626256
 34     0.0004754586836697
 35     0.0000830687107329
 36     0.0000004574290329
 37     0.0000000426765494
 38    -0.0026525859794363
 39    -0.0003191760965650
 40     0.0000004287852505
 41     0.0000000088192360
 42     0.0027759875405479
 43     0.0004551947630103
 44    -0.0000003679140611
 45    -0.0000000162337144
 46     0.0012084692655689
 47     0.0005732410232532
 48    -0.0000000492955690
 49     0.0000001085115034
 50     0.0005071879501484
 51    -0.0014825546764165
 52     0.0000001070606101
 53    -0.0001389250746337
 54    -0.0016482005170661
 55     0.0002577007437054
 56     0.0000231224594384
 57     0.0002181976662536
 58     0.0011118534358053
 59    -0.0004399011060747
 60     0.0001445353243920
 61     0.0001388747322218
 62    -0.0016487265428003
 63     0.0002576898839134
 64    -0.0000222753138631
 65    -0.0002181659606267
 66     0.0011110267023781
 67    -0.0004398987789275
 68    -0.0001451181486265
 69    -0.0002272822549739
 70     0.0009837207698492
 71     0.0010280508317183
 72    -0.0001444453004668
 73    -0.0002945147923359
 74     0.0002910181461216
 75     0.0006815624220682
 76     0.0003175262512530
 77     0.0002273944123403
 78     0.0009838586791623
 79     0.0010280713601800
 80     0.0001447541066642
 81     0.0002943886564775
 82     0.0002915336732161
 83     0.0006811301935787
 84    -0.0003179524604091
 85     0.0001720308319971
 86    -0.0002543993791206
 87    -0.0004656975148199
 88    -0.0000115911766626
 89     0.0001429309287461
 90    -0.0014816422237571
 91     0.0004447300863732
 92    -0.0000944046423722
 93    -0.0001722466814537
 94    -0.0002542346133930
 95    -0.0004654725468760
 96     0.0000115316721810
 97    -0.0001427994715839
 98    -0.0014810882413874
 99     0.0004443460914666
 100     0.0000943914984781
 101     0.0000000483012434
 102    -0.0015458644357639
 103    -0.0009253924540653
 104    -0.0000004472135591
 105    -0.0000000818158089
 106    -0.0008590413252099
 107     0.0013411666243345
 108    -0.0000006108291271
 109    -0.0000000382105244
 110     0.0002919922685456
 111    -0.0008220001528444
 112    -0.0000000291371485
 113     0.0000000610371031
 114     0.0009377181622153
 115    -0.0010769237513013
 116     0.0000006618584679
 117     0.0000003114096938
 118     0.0012823296354975
 119     0.0000475948691956
 120    -0.0000002396603764
 121    -0.0000006599750605
 122     0.0016104702186441
 123    -0.0018801222432560
 124     0.0000001108270358
 125     0.0002439048007964
 126    -0.0000060891734577
 127    -0.0002676482752218
 128    -0.0000198276641897
 129    -0.0002440127759418
 130     0.0000060548017979
 131     0.0002675581501833
 132     0.0000197966028771
 133     0.0001252740491488
 134    -0.0000547763467469
 135     0.0004575828410726
 136     0.0000129050807531
 137    -0.0001252890693062
 138     0.0000548028540536
 139    -0.0004575111267079
 140    -0.0000129134693582
 141    -0.0001625942423058
 142     0.0000080103859972
 143    -0.0005404758860000
 144    -0.0000467436009878
 145     0.0001625560897666
 146    -0.0000081950706464
 147     0.0005406515945762
 148     0.0000467922310285
 149     0.0027570745473487
 150     0.0016557918620586
 151    -0.0023604069656449
 152    -0.0014167965855282
 153    -0.0000003892265733
 154     0.0000005721528503
 155     0.0003772462150792
 156    -0.0004429700132309
 157     0.0000002899119978
 158    -0.0006875588864351
 159     0.0001564138439726
 160     0.0015288840669553
 161     0.0003367891630238
 162     0.0014392097525912
 163     0.0000084773066409
 164    -0.0000041467832413
 165     0.0000915177201919
 166     0.0002454695376062
 167    -0.0013461383232934
 168    -0.0001696349056143
 169    -0.0003327302551184
 170    -0.0006289946833301
 171    -0.0011570618102872
 172    -0.0000039393402950
 173    -0.0001540230791985
 174     0.0000397405918445
 175    -0.0001978781168277
 176     0.0005923057365489
 177     0.0009103078708599
 178     0.0000311108914926
 179    -0.0004772750667233
 180    -0.0002803000769866
 181    -0.0000010311442792
 182    -0.0001291510224119
 183     0.0002060938793362
 184    -0.0000474474771743
 Sym= 79A
 Ene= -0.073310
 Spin= Alpha
 Occup= 2.000000
  1     0.0001454560678759
  2    -0.0000223199522422
  3     0.0001498623789834
  4    -0.0000079458150747
  5     0.0005211189396201
  6    -0.0000162644206042
  7     0.0000497113607851
  8     0.0000175328873527
  9    -0.0001017047950319
 10     0.0001208499899760
 11    -0.0000110995695954
 12     0.0003485580278593
 13    -0.0000404494378849
 14    -0.0003150840393946
 15     0.0000089282586018
 16    -0.0000587700888902
 17     0.0000311815554949
 18     0.0000606403287768
 19     0.0003005878677203
 20    -0.0000166073634596
 21     0.0002680280614162
 22    -0.0000179644953829
 23    -0.0002087436384113
 24     0.0000063672590628
 25    -0.0000143995105817
 26    -0.0000664297935992
 27     0.0000408099583194
 28     0.0002235525467599
 29    -0.0014630650508585
 30     0.0002950442814871
 31    -0.0019646157749697
 32     0.0000004383748272
 33    -0.0000005849620388
 34    -0.0000465074365209
 35    -0.0000348667955077
 36     0.0000001166920473
 37     0.0000000092139227
 38    -0.0002414184050323
 39     0.0000112910155125
 40     0.0000000253629498
 41     0.0000000009838546
 42     0.0002265579795061
 43     0.0000013806714631
 44    -0.0000000298599307
 45     0.0000000006366006
 46    -0.0000822706979605
 47    -0.0000944066259334
 48     0.0000000159760916
 49     0.0000000013108462
 50    -0.0001725996882079
 51    -0.0000356629067180
 52     0.0000000076715867
 53     0.0000145206687843
 54    -0.0000658736370274
 55    -0.0000139725931026
 56    -0.0000083998816922
 57    -0.0000066749258869
 58     0.0001739192877728
 59    -0.0000106189433205
 60     0.0000008910311079
 61    -0.0000145151557810
 62    -0.0000657295129819
 63    -0.0000139808942465
 64     0.0000084466365709
 65     0.0000066694190908
 66     0.0001740332419289
 67    -0.0000106143049135
 68    -0.0000009810512875
 69    -0.0000199670736526
 70     0.0000203271723138
 71     0.0000446092019785
 72    -0.0000198926390640
 73    -0.0000407194842660
 74    -0.0000370137596318
 75     0.0001801805226727
 76    -0.0000068049684943
 77     0.0000199691067279
 78     0.0000203495673230
 79     0.0000446168713784
 80     0.0000198724991871
 81     0.0000407205053500
 82    -0.0000369834855850
 83     0.0001801486291167
 84     0.0000067289590334
 85     0.0000056680366521
 86     0.0001155560064504
 87     0.0000772534295638
 88     0.0000094981363423
 89     0.0000644611080518
 90    -0.0001301927180422
 91    -0.0001076515948293
 92     0.0000593035121897
 93    -0.0000056991642326
 94     0.0001155631684000
 95     0.0000772905616680
 96    -0.0000094071319185
 97    -0.0000644711493992
 98    -0.0001301262010624
 99    -0.0001076729945730
 100    -0.0000592695736721
 101     0.0000000057123664
 102     0.0000275884905815
 103     0.0000284861178178
 104    -0.0000000080503857
 105    -0.0000000097614774
 106     0.0001982830758276
 107     0.0000935494673653
 108    -0.0000000280057968
 109    -0.0000000174708570
 110    -0.0002192687140711
 111    -0.0001642283240468
 112    -0.0000000258078654
 113     0.0000000565817187
 114    -0.0000667731126125
 115    -0.0004371628505087
 116     0.0000001366327552
 117     0.0000000682413644
 118    -0.0001907934532032
 119    -0.0001426057909310
 120    -0.0000000904808688
 121    -0.0000000403938218
 122    -0.0001946034967201
 123    -0.0004685477077215
 124    -0.0000000508473975
 125    -0.0000025450525721
 126     0.0000015343721773
 127    -0.0000019283688995
 128    -0.0000068401751054
 129     0.0000025381812797
 130    -0.0000015339562751
 131     0.0000019149303579
 132     0.0000068343887895
 133     0.0000075941261377
 134    -0.0000036116760001
 135     0.0001152270066424
 136     0.0000078605652921
 137    -0.0000076118509797
 138     0.0000036087902922
 139    -0.0001152082861614
 140    -0.0000078541014574
 141    -0.0000129609606840
 142    -0.0000011062902144
 143    -0.0001090707883605
 144    -0.0000048935727364
 145     0.0000129522936695
 146     0.0000010736535168
 147     0.0001090750453432
 148     0.0000048967452533
 149    -0.0000572774277986
 150     0.0001222522312234
 151     0.0004910989778532
 152     0.0009115897572440
 153    -0.0000001721680916
 154     0.0000005670850786
 155    -0.0000061425557467
 156    -0.0001375351430543
 157     0.0000004219659751
 158     0.0001336987594224
 159     0.4963416756202399
 160    -0.0001070673124671
 161     0.2863512097391068
 162     0.0000233814346288
 163    -0.0000434811181052
 164     0.0367258214903588
 165     0.0642800296665947
 166     0.0000006261213774
 167     0.0000933468974723
 168    -0.0001020830243393
 169     0.0001928915495263
 170    -0.5731350121733206
 171    -0.0002852751023958
 172    -0.0002883930142796
 173    -0.0740927118522502
 174     0.0000401893934950
 175     0.0000052874763399
 176    -0.0001445755977819
 177    -0.4951251234333334
 178     0.0000085380748628
 179     0.2855311762750937
 180     0.0002612288251861
 181     0.0003360906122580
 182     0.0368487770139304
 183    -0.0644156630402664
 184    -0.0000059256432468
 Sym= 80A
 Ene= -0.073276
 Spin= Alpha
 Occup= 2.000000
  1    -0.1317766279972782
  2     0.0071948353259803
  3     0.0900446168827160
  4    -0.0053445332979355
  5     0.0294350201145907
  6    -0.0009094707661290
  7    -0.0104946823525857
  8     0.0239289225093612
  9    -0.0057587134264265
 10    -0.0629145817911275
 11     0.0057749309375258
 12     0.1006415237333531
 13    -0.0099351727869384
 14     0.1588551921844771
 15    -0.0045930706863951
 16    -0.0167290208125202
 17    -0.0155506152562118
 18    -0.0305568960452961
 19    -0.0892248561380536
 20     0.0095880642229684
 21     0.0349079968898829
 22    -0.0022506900187906
 23    -0.1868093795078338
 24     0.0058611709115151
 25     0.0210235459475404
 26    -0.0003958664052780
 27     0.0364631638969454
 28    -0.1041252073904154
 29     0.7221927985106263
 30     0.0806039927148327
 31    -0.5699714974598893
 32    -0.0002248342010196
 33     0.0002926183336834
 34    -0.0142133370475905
 35     0.0180882334676960
 36    -0.0000568926739828
 37    -0.0000002367031821
 38    -0.0011671263750323
 39    -0.0006451361574034
 40     0.0000008083587944
 41    -0.0000000498002530
 42     0.0002365930810434
 43     0.0010406557644690
 44    -0.0000001205866204
 45    -0.0000011078407818
 46    -0.0040927612816149
 47     0.0030275867559783
 48     0.0000009483238147
 49    -0.0000000279782550
 50    -0.0005331872650738
 51    -0.0001816404714952
 52     0.0000001337779085
 53     0.0003702128946584
 54     0.0000816590182115
 55     0.0014142149606136
 56    -0.0005192888755041
 57    -0.0001846658381071
 58     0.0003333907339683
 59    -0.0006232312804813
 60     0.0004658449052143
 61    -0.0003702017925493
 62     0.0000827713555101
 63     0.0014144041667411
 64     0.0005189445356338
 65     0.0001846034051565
 66     0.0003341375573878
 67    -0.0006233147660416
 68    -0.0004656146728742
 69     0.0040228874533349
 70     0.0037878351261117
 71    -0.0050123573067423
 72    -0.0066447495649078
 73    -0.0001294247713048
 74     0.0002585712344957
 75     0.0003243726261286
 76     0.0001316382520584
 77    -0.0040248871157807
 78     0.0037878695003414
 79    -0.0050161108157985
 80     0.0066475578710163
 81     0.0001294521861062
 82     0.0002585304958810
 83     0.0003244196547349
 84    -0.0001317412528103
 85    -0.0139587015174200
 86    -0.0098935755203441
 87     0.0146558394400211
 88     0.0139983840851354
 89     0.0000620789854863
 90     0.0000330975940373
 91    -0.0004013710074714
 92    -0.0000257019509474
 93     0.0139566367142713
 94    -0.0098968939682735
 95     0.0146685377172154
 96    -0.0139945661218699
 97    -0.0000621246366504
 98     0.0000330123156444
 99    -0.0004013342502158
 100     0.0000258748540566
 101    -0.0000029349474247
 102     0.0121957905639269
 103    -0.0150897611084010
 104     0.0000061595326826
 105     0.0000000104667933
 106     0.0004358271301373
 107     0.0000747770656560
 108     0.0000000782970153
 109     0.0000102813275296
 110    -0.0638108330086857
 111     0.0815187830068785
 112     0.0000006781328346
 113    -0.0000000369040342
 114    -0.0002745790628262
 115     0.0000188450475225
 116    -0.0000000923451410
 117    -0.0000377024356699
 118    -0.0574920833056932
 119     0.0730987768281994
 120     0.0000374180143254
 121     0.0000001356531821
 122    -0.0005273980604586
 123     0.0000256891719153
 124    -0.0000000118740138
 125     0.0010687504410160
 126     0.0006154021904891
 127    -0.0005414470261581
 128    -0.0001076741273078
 129    -0.0010686948376974
 130    -0.0006154220922246
 131     0.0005416509525672
 132     0.0001076921918668
 133    -0.0094720628772703
 134    -0.0009206536002244
 135     0.0002748508420097
 136     0.0000321889901338
 137     0.0094752669513388
 138     0.0009212162046122
 139    -0.0002748346582084
 140    -0.0000321750583608
 141     0.0061133559256277
 142    -0.0018225765636172
 143    -0.0002929522783972
 144    -0.0000267619834991
 145    -0.0061095443089932
 146     0.0018177718109048
 147     0.0002929855835690
 148     0.0000267540468704
 149    -0.0000402869350783
 150    -0.0000272859351415
 151     0.0008570835741910
 152     0.0005438337513295
 153     0.0000000291169746
 154    -0.0000001201868721
 155    -0.0001282057859849
 156     0.0000054095108087
 157    -0.0000000798547430
 158     0.0002244298654413
 159     0.0000734497774989
 160    -0.0002720432077772
 161    -0.0000052087613028
 162    -0.0002964980666177
 163     0.0000026224140553
 164     0.0000185022709752
 165     0.0000136546997717
 166    -0.0000518810570030
 167     0.0000187822218630
 168     0.0000026869528760
 169     0.0001282350800764
 170     0.0002762948023653
 171     0.0000162243210204
 172     0.0000000408838751
 173     0.0000645588244797
 174    -0.0000005665361821
 175     0.0000027179049391
 176    -0.0002239991206312
 177    -0.0000888724057003
 178    -0.0002497980032031
 179     0.0000067760193849
 180     0.0002795266166419
 181    -0.0000025936487604
 182     0.0000204596213337
 183    -0.0000180739694041
 184     0.0000492834158576
 Sym= 81A
 Ene= -0.071814
 Spin= Alpha
 Occup= 2.000000
  1     0.0994052839249032
  2    -0.0006711966886903
  3     0.1461397531714434
  4    -0.0184499552639726
  5     0.2640263797347970
  6    -0.0122038867719907
  7     0.0175567026509699
  8     0.0094662582977936
  9    -0.0516996921580703
 10     0.1102206650119980
 11    -0.0103373003095479
 12     0.0686644511813786
 13     0.0483342496573811
 14    -0.1658512318187494
 15     0.0072222470592418
 16    -0.0031734228293102
 17     0.0125176179713065
 18     0.0320944527667414
 19     0.0367850581386012
 20     0.0512557332461350
 21     0.0978500044555448
 22     0.0224460855344132
 23    -0.0994174071567781
 24     0.0044094776075118
 25     0.0044070369353407
 26    -0.0072672860421358
 27     0.0194237647723160
 28    -0.0998196601926866
 29    -0.3932924879853291
 30    -0.1300349409763495
 31    -0.4975070860235083
 32     0.0002516162852758
 33    -0.0003454191978740
 34    -0.0384030516923088
 35    -0.0302584494587552
 36     0.0000911932529441
 37     0.0000015579396755
 38     0.1229169087588138
 39     0.0270647776029860
 40    -0.0000282591185351
 41     0.0000009987630812
 42    -0.1347239970596775
 43    -0.0317437949287366
 44     0.0000210613102641
 45     0.0000006142736061
 46    -0.1086927740638803
 47    -0.0712068362812635
 48     0.0000121660158994
 49    -0.0000056759128330
 50    -0.0633807575803376
 51     0.0984802753974090
 52    -0.0000088832202482
 53     0.0133337155607824
 54     0.0980167704269244
 55    -0.0230854666915420
 56    -0.0050502233615033
 57    -0.0161043803843784
 58    -0.0353105745923970
 59     0.0300129643065247
 60    -0.0084999207433329
 61    -0.0133287400479748
 62     0.0980663078121745
 63    -0.0230882339419497
 64     0.0050075494099862
 65     0.0161022337607669
 66    -0.0352473740655879
 67     0.0300128776327820
 68     0.0085141193518309
 69     0.0081035097688792
 70    -0.0666834604722594
 71    -0.0574477112181958
 72     0.0084812552139417
 73     0.0142849655710466
 74    -0.0330592932015832
 75    -0.0170682582152694
 76    -0.0162658163662890
 77    -0.0081059347829342
 78    -0.0666844973108757
 79    -0.0574454445927719
 80    -0.0085211472588890
 81    -0.0142742409266806
 82    -0.0330912012158107
 83    -0.0170435738052046
 84     0.0162893519475839
 85    -0.0022750796495045
 86     0.0607195136722933
 87     0.0489861562290863
 88    -0.0047792495476181
 89    -0.0055768051052787
 90     0.0845465002659282
 91    -0.0363836420758857
 92     0.0061671837510239
 93     0.0022694623344608
 94     0.0607080407774070
 95     0.0489798403379642
 96     0.0048249969412863
 97     0.0055657808568128
 98     0.0845119210256877
 99    -0.0363606866083969
 100    -0.0061703877383853
 101     0.0000040274196903
 102     0.1114172726157054
 103     0.0838867439668160
 104     0.0000174668035300
 105     0.0000072075247387
 106     0.0807695179040478
 107    -0.0887538387114330
 108     0.0000482710194350
 109    -0.0000133035315580
 110    -0.0558064517048666
 111    -0.0450141817469746
 112     0.0000027050857535
 113    -0.0000045837226653
 114    -0.0431871004875128
 115     0.0393343044298121
 116    -0.0000393478651549
 117     0.0000476257155979
 118    -0.1189377944260432
 119    -0.0940529529527486
 120    -0.0000641148172350
 121     0.0000564315081571
 122    -0.1021948384218096
 123     0.0947395299444703
 124     0.0000157900586950
 125    -0.0184487079578731
 126     0.0005062960467437
 127     0.0199108420717389
 128     0.0007285554830833
 129     0.0184525082028469
 130    -0.0005036916364879
 131    -0.0199102949231659
 132    -0.0007276260289681
 133    -0.0009996715365490
 134     0.0034864488356114
 135    -0.0199130177958428
 136    -0.0007095769824167
 137     0.0009902236288893
 138    -0.0034883050997800
 139     0.0199066333536583
 140     0.0007106786754672
 141     0.0040375932672142
 142     0.0002099070270823
 143     0.0237542570992674
 144     0.0022044302945459
 145    -0.0040422290250046
 146    -0.0002163973579712
 147    -0.0237682730433464
 148    -0.0022085867859212
 149    -0.1881104014559642
 150    -0.1396898276831715
 151     0.2028647343430177
 152     0.1504259488796101
 153     0.0000671430392473
 154    -0.0000989322233326
 155    -0.0262463490263465
 156     0.0244336834865925
 157    -0.0000416846239552
 158     0.0455006107368450
 159    -0.0084511675647856
 160    -0.0996023199704928
 161    -0.0186788498413387
 162    -0.0891812358162431
 163     0.0028566254837034
 164    -0.0004092935781925
 165    -0.0050746548829925
 166    -0.0162165418460433
 167     0.0762127679281444
 168     0.0081404475588703
 169     0.0343927916459008
 170     0.0529097892165541
 171     0.0620057642788416
 172    -0.0023075548606718
 173     0.0147757391271559
 174    -0.0015033881353771
 175     0.0113198507930971
 176    -0.0549565332136514
 177    -0.0591213959628485
 178    -0.0062784224036248
 179     0.0300345547232471
 180     0.0269298032400198
 181    -0.0010304973588154
 182     0.0099659805224406
 183    -0.0160964910682990
 184     0.0048983728614157
 Sym= 82A
 Ene= -0.069644
 Spin= Alpha
 Occup= 2.000000
  1     0.0636524834643378
  2     0.1081975903124450
  3     0.1110240896041809
  4     0.1843881006169591
  5    -0.1258024122068268
  6    -0.4371693901991140
  7    -0.0625293506305977
  8    -0.0364690093845769
  9    -0.0148141709439120
 10    -0.1299745696803839
 11    -0.2184846428850714
 12    -0.0000056561836033
 13    -0.0001854357369247
 14    -0.1297346293153868
 15    -0.4352056696588905
 16    -0.0000111353967035
 17     0.0739484366960253
 18    -0.0148981462248317
 19     0.0636917023542986
 20     0.1078221695436995
 21    -0.1111025193535109
 22    -0.1841102482521173
 23    -0.1251841410809579
 24    -0.4372795585743189
 25     0.0624726278873836
 26    -0.0364488900072986
 27    -0.0148760089404551
 28    -0.0002049780423559
 29     0.0019451665255873
 30     0.0002127885144605
 31     0.0002243711848647
 32     0.2228886379760700
 33    -0.3249234557818477
 34     0.0000427178572908
 35    -0.0000109566469194
 36     0.1045524669007291
 37     0.0013276003423133
 38    -0.0000632496841177
 39    -0.0000359139711338
 40    -0.0029120519335297
 41     0.0001663885989711
 42     0.0000791225195966
 43     0.0000398595282790
 44     0.0001855984721152
 45     0.0004206747026535
 46     0.0001340909778589
 47     0.0001129728368666
 48     0.0019605136630272
 49     0.0001698979852721
 50     0.0001092313854652
 51    -0.0001174096619997
 52    -0.0003838782105282
 53     0.0000187399145583
 54    -0.0016744707071021
 55     0.0006949731458283
 56     0.0006458478007898
 57     0.0002615329439691
 58    -0.0017567482992909
 59    -0.0001569605640142
 60    -0.0008184935001439
 61     0.0000543592983404
 62     0.0015020911573568
 63    -0.0006274561936266
 64     0.0006318079885595
 65     0.0002220301884493
 66     0.0017327260696610
 67     0.0000850157854094
 68    -0.0008404985345733
 69     0.0022581174659976
 70     0.0001221928113611
 71    -0.0002237488405672
 72    -0.0058800501480329
 73     0.0000298172862743
 74     0.0004196002196486
 75    -0.0001221879817662
 76     0.0000453302870977
 77     0.0022441234926684
 78     0.0000231587110566
 79     0.0002968337621047
 80    -0.0058418903873674
 81     0.0000493892694768
 82    -0.0002958996033800
 83     0.0000896438638800
 84     0.0000230531691306
 85    -0.0023228147043482
 86    -0.0019298969003608
 87     0.0021349947791954
 88     0.0057653074966933
 89     0.0000238041032206
 90     0.0001489391662665
 91    -0.0001696559874900
 92    -0.0000837849511405
 93    -0.0022559742457196
 94     0.0016740722003378
 95    -0.0022254537017689
 96     0.0056926884605969
 97     0.0000174544849486
 98    -0.0003130530728080
 99     0.0002582469651189
 100    -0.0000752113331240
 101     0.0077718405996633
 102    -0.0000965854753369
 103    -0.0001283806777695
 104    -0.0177428087408178
 105     0.0000432575042044
 106    -0.0001219433427151
 107     0.0001105590834232
 108    -0.0000149292089142
 109    -0.0135802253245762
 110    -0.0000186669264290
 111     0.0003036236926686
 112     0.0205453056218566
 113     0.0000155243711371
 114     0.0000115184762093
 115    -0.0000091080834131
 116    -0.0000125876670127
 117     0.0559478313072665
 118     0.0000597816580770
 119     0.0003281938858008
 120    -0.0645141672267140
 121    -0.0000033826476414
 122     0.0000997856597872
 123    -0.0000831306827962
 124    -0.0000019021437759
 125    -0.0002025046569000
 126     0.0001043728370100
 127    -0.0005162115964281
 128    -0.0000619666215351
 129    -0.0002524035117739
 130     0.0001029008336711
 131    -0.0004662320427072
 132    -0.0000615427853870
 133    -0.0029118837195825
 134    -0.0002868744169278
 135     0.0000274487732841
 136     0.0000434930688914
 137    -0.0028649438247359
 138    -0.0002769735611438
 139    -0.0000008978357740
 140     0.0000409431068700
 141    -0.0029007554141328
 142     0.0001338170135422
 143    -0.0000829307287593
 144    -0.0000124235230454
 145    -0.0029285340125359
 146     0.0001440615483952
 147    -0.0000508321175629
 148    -0.0000092042602038
 149     0.0002579534504594
 150     0.0002933847556182
 151    -0.0003093980264379
 152    -0.0003513133307417
 153     0.0000034285406611
 154     0.0000119218548922
 155     0.0000294617495316
 156    -0.0000246045077216
 157     0.0000041754938990
 158    -0.0000442677723393
 159     0.0000018389687980
 160     0.0001075807355979
 161     0.0000298954176363
 162     0.0000856890192690
 163     0.0000140911434292
 164     0.0000007000161665
 165     0.0000062921298169
 166     0.0000142503857388
 167    -0.0000876275766260
 168     0.0000027481131103
 169    -0.0000694757380236
 170    -0.0000731834857965
 171    -0.0000444145296674
 172     0.0000242237965648
 173    -0.0000256727389769
 174    -0.0000044872721866
 175    -0.0000096151368236
 176     0.0000983175281734
 177     0.0000726586411166
 178     0.0000015232587614
 179    -0.0000495739055173
 180    -0.0000210560998674
 181     0.0000223416968124
 182    -0.0000119980729211
 183     0.0000291147374879
 184    -0.0000052691789422
 Sym= 83A
 Ene= -0.068320
 Spin= Alpha
 Occup= 2.000000
  1    -0.0002128432551776
  2    -0.0000053219158443
  3    -0.0003663836538755
  4     0.0000535147656279
  5    -0.0005334456575284
  6     0.0000319528820976
  7    -0.0000287988471754
  8    -0.0000229748656485
  9     0.0001099855995166
 10    -0.0002689400853211
 11     0.0000151658651534
 12    -0.0000013917299414
 13    -0.0001779463005442
 14     0.0003249468903422
 15    -0.0000512057161618
 16    -0.0000305112400858
 17    -0.0000182368964658
 18    -0.0000700747915837
 19     0.0000799052896015
 20    -0.0001808024163739
 21    -0.0001437109975182
 22    -0.0000968765070162
 23     0.0001957835994552
 24    -0.0000390169210848
 25    -0.0000261258683646
 26    -0.0000255946590705
 27    -0.0000434018528868
 28     0.0005190814989856
 29     0.0003393671169045
 30     0.0006698743053701
 31     0.0004314681490761
 32     0.0000297194139641
 33    -0.0000177958065521
 34     0.0000790485431085
 35     0.0000617641531597
 36     0.0000052433139083
 37     0.0003211269204377
 38    -0.0006527732445796
 39    -0.0000415302587354
 40    -0.0005778127925863
 41     0.0044833684089229
 42     0.0006650358959983
 43     0.0000413512137230
 44     0.0104076630214650
 45     0.0007445161525446
 46     0.0002081571581367
 47     0.0000864058294225
 48     0.0012958029313251
 49     0.0000888657355958
 50    -0.0001381454312229
 51    -0.0001497665014781
 52    -0.0083025960737309
 53     0.0010413662072093
 54     0.0039072865407270
 55    -0.0003435128340054
 56     0.0031323650194599
 57    -0.0003051058878141
 58     0.0038514366663293
 59     0.0021218317013046
 60    -0.0026060073622216
 61     0.0010695545145145
 62    -0.0045954622064223
 63     0.0003987268263873
 64     0.0031080756023440
 65    -0.0003383463895015
 66    -0.0031549000434137
 67    -0.0022269404165680
 68    -0.0026103214557090
 69     0.0000483298533793
 70     0.0000915171573238
 71     0.0006090793754155
 72    -0.0001214388489201
 73     0.0040832628638524
 74    -0.0017355822608309
 75     0.0010026682800297
 76     0.0164071191322668
 77     0.0001449274778225
 78     0.0003272015226394
 79    -0.0001714807959139
 80    -0.0000265100719383
 81     0.0042393727883786
 82     0.0015793162065117
 83    -0.0004392965973431
 84     0.0163311203215830
 85     0.0001068685828800
 86     0.0002189053189523
 87     0.0000728201459931
 88     0.0002334815600759
 89    -0.0031178874554909
 90     0.0013295811843383
 91     0.0049902443646186
 92    -0.0165248357063418
 93     0.0000785786197863
 94    -0.0002995063129893
 95    -0.0001789980621441
 96     0.0001862773810794
 97    -0.0032708661339548
 98    -0.0018921263325585
 99    -0.0050313369961918
 100    -0.0165961295694641
 101     0.0001202845703216
 102    -0.0002877369118449
 103    -0.0002043761703259
 104     0.0000509353623037
 105     0.0091807704501126
 106     0.0001323428910822
 107     0.0001631318845341
 108     0.0336020360420488
 109     0.0000281715768018
 110    -0.0000732083479774
 111    -0.0000542516282941
 112     0.0000250256214501
 113    -0.0117305875991252
 114     0.0001615463510488
 115    -0.0006175461730181
 116    -0.0368548969093358
 117     0.0000035682753826
 118     0.0001411860508746
 119     0.0001116949457293
 120    -0.0000018687465642
 121     0.0704628779582294
 122     0.0000428702375627
 123    -0.0006218872819047
 124     0.0896352691023753
 125    -0.0017045736085708
 126    -0.0002211809173750
 127    -0.0010589142310522
 128     0.0001771680187323
 129    -0.0017516387538212
 130    -0.0002160605423735
 131    -0.0009894627096910
 132     0.0001961352552603
 133    -0.0000238212885165
 134     0.0001399654714879
 135    -0.0079666605773352
 136    -0.0006928997796757
 137    -0.0000520146024624
 138     0.0001663996767471
 139    -0.0082369998480294
 140    -0.0007010239358086
 141    -0.0001870485698364
 142    -0.0000343358330659
 143    -0.0079315037986522
 144    -0.0002877211253676
 145    -0.0001309145262974
 146    -0.0000304948352915
 147    -0.0076507660127807
 148    -0.0002744039023697
 149    -0.0002034526906492
 150    -0.0050253858792867
 151     0.0003344001129233
 152     0.0008833643946609
 153     0.2307780277075548
 154    -0.2965824385802052
 155    -0.0000658440188113
 156    -0.0000954413740309
 157    -0.1099939576537341
 158    -0.0569245633028399
 159     0.1056213153559673
 160     0.0977109723375571
 161    -0.1819687114285763
 162    -0.1371866257296641
 163    -0.4421436255864442
 164     0.0625853316293279
 165    -0.0367118329006956
 166     0.0121773717676967
 167     0.1124652177204060
 168    -0.2102642866858444
 169     0.0001781765377006
 170     0.0007472262599208
 171    -0.1395051966422659
 172    -0.4412314861162444
 173     0.0000684214125713
 174     0.0738868014700984
 175     0.0117766290983111
 176    -0.0568244663404036
 177     0.1039322570369263
 178    -0.0971874999125901
 179     0.1805464999383975
 180    -0.1355076916250225
 181    -0.4426806449283884
 182    -0.0623797539960767
 183    -0.0366718360265607
 184     0.0121775301852565
 Sym= 84A
 Ene= -0.067223
 Spin= Alpha
 Occup= 2.000000
  1    -0.0315344835620264
  2    -0.0014705382968648
  3    -0.0553391759788659
  4     0.0071674432276274
  5    -0.0778800481763997
  6     0.0088217760089859
  7    -0.0038047182473158
  8    -0.0033093293064384
  9     0.0167956654453645
 10    -0.0396925707310506
 11     0.0032705501540694
 12     0.0027447699746821
 13    -0.0279742053103440
 14     0.0483964645275965
 15    -0.0056798557827581
 16    -0.0054495697614620
 17    -0.0030363360668672
 18    -0.0103638606392925
 19     0.0147808282237716
 20    -0.0289238752832701
 21    -0.0194949138516594
 22    -0.0144099513964996
 23     0.0296096518516410
 24    -0.0035570482654354
 25    -0.0047214297842801
 26    -0.0045568906724741
 27    -0.0063872262409299
 28     0.0843430880002022
 29     0.0414459403729697
 30     0.1091186664787858
 31     0.0528957550590803
 32     0.0000195477317595
 33    -0.0000415258350630
 34     0.0109740655800778
 35     0.0085420067620509
 36     0.0000185888935450
 37    -0.0000000232736090
 38    -0.1050549320299833
 39    -0.0028101846750469
 40     0.0000177618758335
 41    -0.0000085138530931
 42     0.1066173620162854
 43     0.0009480453792496
 44    -0.0000338390791606
 45    -0.0000000738930253
 46     0.0263368133578653
 47     0.0081316374672700
 48    -0.0000038341384444
 49    -0.0000007631493015
 50    -0.0292267612543907
 51    -0.0025704435998188
 52     0.0000153088659015
 53    -0.0010570370438681
 54    -0.0516281871145317
 55     0.0011783856354719
 56     0.0018776842702874
 57     0.0005530249533369
 58     0.0599423650153615
 59    -0.0024199118239674
 60    -0.0010969263401699
 61     0.0010537544507038
 62    -0.0516019998342997
 63     0.0011756240452693
 64    -0.0018603502138306
 65    -0.0005552887446342
 66     0.0599552564959829
 67    -0.0024086699442622
 68     0.0010740579086335
 69    -0.0079503811100985
 70     0.0305153930936886
 71     0.0335926192324544
 72    -0.0077528812997717
 73    -0.0085924305149899
 74    -0.0286308738263385
 75     0.0405143378774287
 76     0.0109964583509085
 77     0.0079524578436984
 78     0.0305181917280934
 79     0.0335935918031323
 80     0.0077633250570474
 81     0.0085743968800725
 82    -0.0285703315171749
 83     0.0404569627054124
 84    -0.0110891368441603
 85     0.0023136891813843
 86    -0.0011005684512903
 87    -0.0046293740665647
 88     0.0037731384673698
 89     0.0023417712246214
 90    -0.0252093632471240
 91     0.0092544564906407
 92    -0.0058834306074737
 93    -0.0023152518406695
 94    -0.0010915015215397
 95    -0.0046247692965681
 96    -0.0037740065804873
 97    -0.0023362573778362
 98    -0.0251228534214114
 99     0.0092406356448114
 100     0.0059503374649380
 101     0.0000019559118641
 102    -0.0405360718235533
 103    -0.0282152503758619
 104    -0.0000149281510359
 105    -0.0000233464193084
 106     0.0217906629347607
 107    -0.0084833619768294
 108    -0.0000852411169640
 109    -0.0000041855311925
 110    -0.0187629173458332
 111    -0.0141552508915254
 112     0.0000011841351817
 113     0.0000408941891163
 114     0.0686456319884863
 115    -0.0455363237425169
 116     0.0001204416986433
 117     0.0000121881586785
 118     0.0138237054405678
 119     0.0109784161245649
 120    -0.0000128681349585
 121    -0.0001909886028346
 122     0.0476415323669515
 123    -0.0317383156388525
 124    -0.0002204073061163
 125     0.0006255298874071
 126    -0.0006434592930006
 127    -0.0019706529228252
 128    -0.0008963681308679
 129    -0.0006222374065194
 130     0.0006434052250872
 131     0.0019686490393548
 132     0.0008924241111514
 133     0.0025282610727682
 134    -0.0019484645017962
 135     0.0069033390577720
 136    -0.0009931768429889
 137    -0.0025297507222487
 138     0.0019475553001143
 139    -0.0068606710942424
 140     0.0009984014659859
 141    -0.0047240460730651
 142    -0.0003379818086646
 143    -0.0103196070636383
 144    -0.0010196830103844
 145     0.0047224595000192
 146     0.0003383417043659
 147     0.0103546435588365
 148     0.0010132148381723
 149    -0.0755153445957173
 150    -0.4996201251983489
 151     0.1128474367917077
 152     0.7505378927685327
 153    -0.0006241975215790
 154     0.0008082547009761
 155     0.0112964569484529
 156    -0.0075832495909961
 157     0.0003006360742041
 158    -0.0324504803811217
 159    -0.0004097685080904
 160     0.0403761598472367
 161    -0.0025714250161898
 162     0.1496109197722433
 163    -0.0121264671512343
 164    -0.0167416756245553
 165     0.0076145478914133
 166     0.0353200850221624
 167    -0.0287981644388541
 168     0.0019695111931314
 169     0.1022374939918692
 170     0.0167892577960252
 171    -0.0825335635711279
 172     0.0085176398080695
 173     0.0233996330043547
 174     0.0098725635460400
 175    -0.0196319040113035
 176    -0.0832494586887904
 177    -0.0156637800287691
 178     0.0749739757650389
 179     0.0071800450635954
 180    -0.0660384318941470
 181     0.0070760877750898
 182     0.0057536460346644
 183    -0.0257151218599768
 184    -0.0158237603915515
 Sym= 85A
 Ene= -0.066865
 Spin= Alpha
 Occup= 2.000000
  1    -0.0025777579697802
  2    -0.0001638803955467
  3    -0.0045582267336997
  4     0.0006136682631528
  5    -0.0063820877409555
  6     0.0007616297187514
  7    -0.0003052444668130
  8    -0.0002824626116111
  9     0.0013877595188012
 10    -0.0033328978768373
 11     0.0002748408034695
 12     0.0002898094894018
 13    -0.0023105453351225
 14     0.0040507681390717
 15    -0.0004988043875120
 16    -0.0004651692056550
 17    -0.0002542590210488
 18    -0.0008746690229600
 19     0.0012500346551565
 20    -0.0024289680789758
 21    -0.0015018394625119
 22    -0.0012203818879792
 23     0.0023423609712695
 24    -0.0002950564394876
 25    -0.0003982582135574
 26    -0.0004037215991366
 27    -0.0005092054001703
 28     0.0072581821474763
 29     0.0032803698667811
 30     0.0091014089217225
 31     0.0040593519447269
 32     0.0000010733302595
 33    -0.0000028190214332
 34     0.0008689055817733
 35     0.0006984263816466
 36     0.0000013644835018
 37    -0.0000006160168015
 38    -0.0077625825551301
 39    -0.0020985848072272
 40     0.0000028724730134
 41    -0.0000117502217285
 42     0.0063978290652551
 43     0.0027208218611961
 44    -0.0000277527117024
 45    -0.0000018793564924
 46     0.0017306638523642
 47     0.0007268718158409
 48    -0.0000035323332295
 49     0.0000010985800220
 50    -0.0080939430349895
 51    -0.0117805296517488
 52     0.0000232572868885
 53    -0.0000523671418685
 54    -0.0037103423210888
 55     0.0013766834236989
 56     0.0003477276963585
 57     0.0004027668488599
 58     0.0045395603997289
 59    -0.0038121587084642
 60     0.0001655934665499
 61     0.0000466874404154
 62    -0.0036917138376939
 63     0.0013749035823704
 64    -0.0003619562024921
 65    -0.0004008875336901
 66     0.0045540381569499
 67    -0.0038011625273875
 68    -0.0001539770704233
 69    -0.0004834989002915
 70     0.0027342235025470
 71     0.0024488682579398
 72    -0.0004692778336421
 73    -0.0049732569188187
 74     0.0077786870418104
 75     0.0126480815000038
 76    -0.0059293583916497
 77     0.0004832824133907
 78     0.0027339159892231
 79     0.0024509171803048
 80     0.0004705027452525
 81     0.0049504551788299
 82     0.0077743458671625
 83     0.0126519155458074
 84     0.0058423582397950
 85     0.0001545934477385
 86    -0.0000297982391239
 87    -0.0001913250289096
 88     0.0002435694770377
 89     0.0124701474492128
 90    -0.0176407289713367
 91    -0.0188522764804788
 92     0.0142835014143103
 93    -0.0001552143217041
 94    -0.0000277033835226
 95    -0.0001902673988553
 96    -0.0002446828179209
 97    -0.0124491044797354
 98    -0.0176280414082633
 99    -0.0188382910034538
 100    -0.0141917679590358
 101    -0.0000001287582415
 102    -0.0031698085981197
 103    -0.0023620012483693
 104    -0.0000013002107042
 105    -0.0000263742831375
 106     0.0179381982084827
 107     0.0258050471696010
 108    -0.0000898931999623
 109    -0.0000004364222250
 110    -0.0017295647289667
 111    -0.0013559599878418
 112    -0.0000000583444739
 113     0.0000333425290995
 114    -0.0480637716056796
 115    -0.0710047922535055
 116     0.0001027961168759
 117     0.0000009343843188
 118     0.0009253748623384
 119     0.0007610325184014
 120    -0.0000009869274100
 121    -0.0001865456296054
 122    -0.0541038580497298
 123    -0.0796098664276910
 124    -0.0002371604124482
 125     0.0015461981908056
 126     0.0001759942516745
 127    -0.0023119807940058
 128    -0.0009437998824276
 129    -0.0015376645114751
 130    -0.0001749629575587
 131     0.0023174662663094
 132     0.0009427502884384
 133     0.0000604602479493
 134    -0.0002141973707001
 135     0.0168609030983608
 136     0.0016645515247614
 137    -0.0000603439989820
 138     0.0002134374400459
 139    -0.0168208122316069
 140    -0.0016613262022769
 141    -0.0002210657364371
 142    -0.0000085371069124
 143    -0.0138265653118233
 144     0.0001542564340007
 145     0.0002217497530221
 146     0.0000087155272958
 147     0.0138676638006568
 148    -0.0001510845704957
 149    -0.0166012553188709
 150    -0.7722164169811176
 151    -0.0105735371416644
 152    -0.5248386677789431
 153    -0.0005732379193896
 154     0.0007659100435548
 155    -0.0153076289681351
 156    -0.0225224996999864
 157     0.0003050048669123
 158    -0.0963686066569832
 159     0.0072241277679675
 160    -0.0648800820281838
 161     0.0047321270495532
 162    -0.0149861229018720
 163     0.0027809149976050
 164    -0.0097152601843594
 165    -0.0194962482320409
 166    -0.0036288001361884
 167    -0.0845484839961702
 168    -0.0001689602838603
 169    -0.0652747740102303
 170     0.0045009013352186
 171    -0.1702630924646185
 172     0.0182554101363453
 173    -0.0122746707185763
 174     0.0176652340750583
 175    -0.0398799576419166
 176    -0.0893768959266643
 177     0.0021742941854515
 178    -0.0538974139182863
 179    -0.0029877167322346
 180     0.1856954881253951
 181    -0.0172237623237005
 182     0.0217885682833499
 183     0.0016310506472510
 184     0.0434772550244764
 Sym= 86A
 Ene= -0.063491
 Spin= Alpha
 Occup= 2.000000
  1     0.0000443096376684
  2     0.0000192068000312
  3     0.0000770463109391
  4     0.0000320968099305
  5    -0.0000028039518621
  6     0.0001055895621479
  7    -0.0000000244667091
  8     0.0000002975046985
  9     0.0000436092062701
 10    -0.0000655960992069
 11    -0.0000396773993011
 12    -0.0000023058484061
 13     0.0000076524013301
 14    -0.0000312871436036
 15     0.0001098374739504
 16     0.0000019070672482
 17     0.0000013729234090
 18     0.0000501609312686
 19     0.0000317645793219
 20     0.0000266772528923
 21    -0.0000598762159761
 22    -0.0000299277288170
 23    -0.0000282812522308
 24     0.0001102380324696
 25     0.0000024350919688
 26     0.0000010850649279
 27     0.0000496629221300
 28    -0.0000229651721904
 29    -0.0000059425886430
 30    -0.0000322158963875
 31    -0.0000069358348112
 32    -0.0010407140622153
 33     0.0003652018050960
 34    -0.0000017648121424
 35    -0.0000013892849125
 36     0.0000189209004675
 37     0.0053287912082205
 38     0.0000228686620903
 39     0.0000024665636162
 40     0.0083132063178157
 41     0.0013501281323751
 42    -0.0000200058516084
 43     0.0000016522355481
 44    -0.0036795614475641
 45    -0.0039559774111137
 46    -0.0000006942731928
 47     0.0000025971866111
 48    -0.0076953437596649
 49    -0.0030883559203603
 50     0.0000257935404618
 51    -0.0000022638209564
 52     0.0074142781532954
 53    -0.0031968296773785
 54    -0.0028032092499674
 55    -0.0020355500739882
 56    -0.0094453902141241
 57     0.0092411375149016
 58    -0.0019707724128282
 59     0.0103482659605184
 60     0.0137743806077171
 61    -0.0031933849790677
 62     0.0028154825137104
 63     0.0020346791349157
 64    -0.0094411804824204
 65     0.0092319636487777
 66     0.0019481058231062
 67    -0.0103416747630723
 68     0.0137652661379940
 69     0.0006017103771771
 70     0.0007168979989661
 71    -0.0012786588045313
 72     0.0017593596716237
 73    -0.0042325926465052
 74     0.3982227904075038
 75    -0.3094306939825816
 76     0.0039903487225248
 77     0.0005992920839466
 78    -0.0007285311627637
 79     0.0012655226794197
 80     0.0017575677620293
 81    -0.0042502402308199
 82    -0.3982165695954669
 83     0.3093726591350803
 84     0.0038893066729362
 85    -0.0008639051046365
 86    -0.0004779952836303
 87    -0.0001394094132146
 88    -0.0020600212366515
 89    -0.0007327710723189
 90     0.3947043054796583
 91    -0.2983925913853688
 92    -0.0019293389218621
 93    -0.0008634367752986
 94     0.0004711887712846
 95     0.0001359277908071
 96    -0.0020588035257839
 97    -0.0007488074720186
 98    -0.3947551657348936
 99     0.2984082879016925
 100    -0.0020748058580173
 101    -0.0002219305807722
 102     0.0000056697390673
 103     0.0000039059247791
 104     0.0003171839075651
 105    -0.0023847412405499
 106    -0.0000570130460529
 107     0.0000455536153729
 108     0.0031053753050297
 109    -0.0006529950567203
 110     0.0000107708892881
 111     0.0000074883870418
 112    -0.0005844857770287
 113     0.0017513661090013
 114    -0.0000188025497582
 115     0.0000084589532454
 116    -0.0019678022273721
 117     0.0002121456986786
 118     0.0000033883380108
 119     0.0000020896712796
 120     0.0000637273114601
 121    -0.0006070315935171
 122     0.0000299611656110
 123    -0.0000198866525375
 124     0.0007590186955245
 125     0.0015935408529155
 126    -0.0007830518435213
 127     0.0080376138854341
 128     0.0084844567944847
 129     0.0015932349225976
 130    -0.0007825751245371
 131     0.0080337977493143
 132     0.0084776820279059
 133     0.0008665916284242
 134    -0.0000827485247551
 135    -0.0005790790494349
 136    -0.0008648067350322
 137     0.0008674803763092
 138    -0.0000832795623804
 139    -0.0005685689118523
 140    -0.0008624981094686
 141     0.0010975562034558
 142     0.0001371877619596
 143     0.0008620086947389
 144     0.0003263953558977
 145     0.0010961774986025
 146     0.0001370437967432
 147     0.0008549112084747
 148     0.0003262701125084
 149     0.0000960980919021
 150    -0.0000857880934908
 151    -0.0001713288210347
 152     0.0001086100007664
 153     0.0036070692611934
 154    -0.0012803681445074
 155     0.0000165057175648
 156    -0.0000097346250885
 157    -0.0001847793374194
 158     0.0000458964116605
 159     0.0000484583494585
 160    -0.0000850743597456
 161    -0.0000824113207045
 162    -0.0000474294954830
 163    -0.0009355552074923
 164     0.0000635307130383
 165    -0.0000378044546139
 166     0.0001629757219784
 167    -0.0002258475412487
 168    -0.0001031063337652
 169    -0.0000028866837402
 170    -0.0000385959498708
 171    -0.0002114018069073
 172    -0.0009064645712709
 173    -0.0000082094632421
 174     0.0000882311670945
 175     0.0001246417336092
 176     0.0001111066849123
 177     0.0000850743985494
 178     0.0001923194107843
 179     0.0000685504771401
 180    -0.0002028375656769
 181    -0.0009109078772005
 182    -0.0000771517598615
 183    -0.0000362521756479
 184     0.0001246702601631
 Sym= 87A
 Ene= -0.061856
 Spin= Alpha
 Occup= 2.000000
  1    -0.0585529931138969
  2    -0.0033457164355194
  3    -0.1082495424083027
  4     0.0152365045182356
  5    -0.1493843288702485
  6     0.0313031840352876
  7    -0.0075373932302568
  8    -0.0076920746921380
  9     0.0362282394067988
 10    -0.0759536517055024
 11     0.0069172532320588
 12     0.0216276090143361
 13    -0.0641740852694577
 14     0.0920181116169136
 15    -0.0194991394084553
 16    -0.0172378696994078
 17    -0.0063432328893776
 18    -0.0221612965599201
 19     0.0452189552735419
 20    -0.0662501605940686
 21    -0.0286940465749399
 22    -0.0332360355026213
 23     0.0576069029059871
 24    -0.0123049883665333
 25    -0.0133304853275784
 26    -0.0153790393759851
 27    -0.0139558859240516
 28     0.2114685771659122
 29     0.0390088008184263
 30     0.2762522066032288
 31     0.0503357734726443
 32    -0.0000327608160275
 33    -0.0000046819639810
 34     0.0107035424620531
 35     0.0082484480394628
 36     0.0000194392360672
 37     0.0000037214232536
 38    -0.1835361226223354
 39     0.0104364613508884
 40     0.0000323241187994
 41    -0.0000009590918420
 42     0.1681974328143922
 43    -0.0209332234521094
 44    -0.0000274650649771
 45     0.0000017468641786
 46    -0.0159934665973036
 47    -0.0331419271989641
 48    -0.0000033489079199
 49     0.0000007451426238
 50    -0.1499780658912504
 51     0.0845602124129108
 52     0.0000069530940260
 53     0.0078656598399514
 54    -0.0568229962588664
 55    -0.0127445539867204
 56     0.0024835273730526
 57    -0.0129027172010842
 58     0.1342387055331918
 59     0.0158192934678762
 60    -0.0113830066008422
 61    -0.0078649655477104
 62    -0.0567874033301522
 63    -0.0127459381717321
 64    -0.0024578148232832
 65     0.0129016438734714
 66     0.1342596839017551
 67     0.0158180895115606
 68     0.0113282771081837
 69    -0.0143655680052895
 70     0.0334780320449440
 71     0.0465902538570451
 72    -0.0135340469430270
 73    -0.0117736546760981
 74    -0.1007821131890410
 75     0.0968879763309142
 76     0.0142502598140674
 77     0.0143673191389572
 78     0.0334845015430033
 79     0.0465920299284583
 80     0.0135468187391308
 81     0.0117760140657193
 82    -0.1009742018357642
 83     0.0970321675085128
 84    -0.0143035503691909
 85     0.0040821215710304
 86     0.0461971987861390
 87     0.0282213139703551
 88     0.0062254407867168
 89     0.0040128590437581
 90     0.0232180193656200
 91    -0.0291256830945792
 92    -0.0073670611609575
 93    -0.0040822346679159
 94     0.0462107137839804
 95     0.0282274138811609
 96    -0.0062079012014652
 97    -0.0040141681254962
 98     0.0230196046086827
 99    -0.0289735474978423
 100     0.0074005891508134
 101     0.0000023470054574
 102    -0.0287938947078095
 103    -0.0165098930128894
 104    -0.0000122757911219
 105    -0.0000008842556281
 106     0.1499561123974706
 107    -0.1049067469122507
 108     0.0000272059893786
 109    -0.0000128802931510
 110    -0.1073176555417846
 111    -0.0816706060098281
 112    -0.0000156831781413
 113     0.0000108054816554
 114     0.0887961810363745
 115    -0.0661084933155838
 116     0.0000439679494376
 117     0.0000187569742777
 118    -0.0523289226478392
 119    -0.0397094931433001
 120    -0.0000250609065416
 121     0.0000047096732365
 122    -0.0288120432257695
 123     0.0217527000036057
 124    -0.0000173841612782
 125    -0.0113761741213384
 126    -0.0011056573096681
 127     0.0081532373728934
 128    -0.0027420215948571
 129     0.0113751882625255
 130     0.0011045084595609
 131    -0.0081557164292329
 132     0.0027426444359973
 133     0.0052751923360192
 134    -0.0025092891101158
 135     0.0066638245531992
 136    -0.0027111255991358
 137    -0.0052799356401053
 138     0.0025073873901639
 139    -0.0066518414929626
 140     0.0027137096854215
 141    -0.0087207620283451
 142    -0.0006983219523373
 143    -0.0117548241051270
 144    -0.0009697455224641
 145     0.0087180438257948
 146     0.0006984381279552
 147     0.0117617037519259
 148     0.0009684527765304
 149    -0.3237536440734947
 150     0.1344027311766519
 151     0.4318782633039295
 152    -0.1787016859125247
 153    -0.0001014451659866
 154     0.0000676093997714
 155    -0.0326030579840006
 156     0.0244328403114359
 157     0.0000204535257856
 158     0.0998864800038818
 159    -0.0051872388848500
 160    -0.1787673159898006
 161    -0.0198380873334228
 162    -0.2500314619023805
 163     0.0497280772556403
 164     0.0136931129153072
 165    -0.0121980355012690
 166    -0.0623422772847824
 167     0.1238726760480178
 168     0.0088248797610609
 169     0.0196046450903268
 170     0.0971542393143650
 171     0.1512387598374231
 172    -0.0300140807370780
 173     0.0243041985198733
 174    -0.0109900390690016
 175     0.0376734104990726
 176    -0.0597306401324214
 177    -0.0995659415204266
 178    -0.0588214866201112
 179     0.0506943766027402
 180     0.0987283484335998
 181    -0.0194101263884458
 182     0.0199733273409146
 183    -0.0206534025244505
 184     0.0246688055927838
 Sym= 88A
 Ene= -0.058587
 Spin= Alpha
 Occup= 2.000000
  1    -0.0710044146724161
  2     0.1402920629377566
  3     0.0049689226957356
  4    -0.0773956157263300
  5    -0.0385464881368558
  6     0.0110656026259939
  7    -0.0267335813022044
  8     0.0409497779678563
  9     0.0099083343724568
 10     0.1825081249858947
 11    -0.0188412944945044
 12     0.0400575088014546
 13    -0.0997724817374428
 14    -0.2249806829587205
 15     0.0625099573566883
 16    -0.0302556398235988
 17     0.0174883719433156
 18     0.0578149724812171
 19     0.0853650006723506
 20     0.0414754124623358
 21    -0.1963528472849544
 22     0.0500816920481108
 23     0.2629123100956836
 24    -0.0722334307643950
 25    -0.0085368388725877
 26     0.0265734345929928
 27    -0.0680548895615833
 28    -0.5686399555733114
 29    -0.0667696709093807
 30     0.4419523457165692
 31     0.0512591314483856
 32     0.0000876340252549
 33     0.0000038497887269
 34     0.0030297091247230
 35    -0.0040844082853478
 36    -0.0000664183691372
 37    -0.0000022183497504
 38    -0.0026919648534032
 39    -0.0006532925246436
 40     0.0000054252091672
 41    -0.0000001330469494
 42     0.0002602030164901
 43     0.0020141692130496
 44    -0.0000006517183607
 45    -0.0000005124547504
 46    -0.0098533639398697
 47     0.0070745002568198
 48    -0.0000016206821635
 49    -0.0000003542365941
 50     0.0000112552007951
 51    -0.0006506565200504
 52     0.0000008788159498
 53     0.0013345105218653
 54    -0.0000907561376048
 55     0.0028990335654628
 56    -0.0016186001050314
 57    -0.0005331815967553
 58     0.0001108716110960
 59    -0.0009173287882611
 60     0.0012986088810037
 61    -0.0013338017270135
 62    -0.0000904776687466
 63     0.0029005105041344
 64     0.0016156300037475
 65     0.0005322173286629
 66     0.0001099640879979
 67    -0.0009176173649711
 68    -0.0012954402080384
 69     0.0129350290699641
 70     0.0094855245373546
 71    -0.0124796916795284
 72    -0.0205980491747139
 73    -0.0002276791988005
 74     0.0007718424746767
 75    -0.0000240987120839
 76     0.0002659591703051
 77    -0.0129434125760208
 78     0.0094917367383498
 79    -0.0124835746063043
 80     0.0206134457567028
 81     0.0002276526194360
 82     0.0007712896245072
 83    -0.0000232372766734
 84    -0.0002662021923222
 85    -0.0464531170673372
 86    -0.0296736377500090
 87     0.0430960178639134
 88     0.0436543941148425
 89     0.0000565950642319
 90    -0.0000218030155453
 91    -0.0002364902180622
 92    -0.0001285569482199
 93     0.0464639652942465
 94    -0.0296726597420061
 95     0.0431247469951639
 96    -0.0436582054365540
 97    -0.0000567498865111
 98    -0.0000227394530573
 99    -0.0002358773811426
 100     0.0001290482559212
 101    -0.0000106347715966
 102     0.0327971552220502
 103    -0.0416373189904036
 104     0.0000196685260340
 105    -0.0000000302949867
 106    -0.0003193396993664
 107     0.0004772074432516
 108    -0.0000001051490890
 109     0.0000407638133666
 110    -0.2135311756287465
 111     0.2743602538787466
 112    -0.0000027757405125
 113    -0.0000001530340915
 114    -0.0005860773478331
 115     0.0005691535590746
 116    -0.0000002239803028
 117    -0.0000725959714600
 118    -0.1555840685554199
 119     0.1995637429807357
 120     0.0000794214311588
 121     0.0000000634439996
 122    -0.0001943976764631
 123     0.0001866165671665
 124    -0.0000000301611449
 125     0.0020447323962110
 126     0.0018255537729632
 127    -0.0007364360369287
 128    -0.0001848514007264
 129    -0.0020434557029317
 130    -0.0018255206884012
 131     0.0007380444518623
 132     0.0001850390526195
 133    -0.0263821267815271
 134    -0.0023767415660466
 135     0.0002057767954145
 136     0.0000151753668242
 137     0.0263919760112962
 138     0.0023770987256661
 139    -0.0002056778585348
 140    -0.0000152372069277
 141     0.0159330757628141
 142    -0.0078927972142559
 143    -0.0002656261044759
 144    -0.0000269903488935
 145    -0.0159221484486214
 146     0.0078929994178416
 147     0.0002659111619104
 148     0.0000270359747961
 149     0.0016179960865968
 150    -0.0003346045814994
 151    -0.0016912089307214
 152     0.0003497303024485
 153     0.0000003106131309
 154    -0.0000002748437777
 155     0.0000701440055678
 156    -0.0000684210721107
 157    -0.0000001037506306
 158    -0.0003383970127294
 159     0.0000720607012761
 160     0.0006667331323646
 161     0.0001143585984624
 162     0.0009033388404739
 163    -0.0002395246408064
 164    -0.0000419363496350
 165     0.0000665033720632
 166     0.0002397287932833
 167    -0.0005315691950118
 168    -0.0000445946655913
 169    -0.0001237677367153
 170    -0.0003663701914070
 171    -0.0006425487380555
 172     0.0001705438040015
 173    -0.0001101784942386
 174     0.0000500195570232
 175    -0.0001705392534473
 176     0.0002488046871842
 177     0.0004300674837141
 178     0.0001044694323002
 179    -0.0002266640945518
 180    -0.0002606525839934
 181     0.0000680166142062
 182    -0.0000899273614773
 183     0.0001169469755773
 184    -0.0000691050140917
 Sym= 89A
 Ene= -0.053658
 Spin= Alpha
 Occup= 2.000000
  1     0.0654915972722230
  2     0.0042583201697629
  3     0.1279783626698086
  4    -0.0247048086721518
  5     0.1845670920785460
  6    -0.0714515437393959
  7     0.0128540961460274
  8     0.0141570030553710
  9    -0.0521035553157268
 10     0.0897850724334526
 11    -0.0117869826475282
 12    -0.0416178039341318
 13     0.0912542981796303
 14    -0.1151122071040089
 15     0.0448568175517089
 16     0.0321527379683251
 17     0.0113153103302301
 18     0.0322952330403255
 19    -0.0691464078138528
 20     0.0961697881239015
 21     0.0226371212776942
 22     0.0472308202558902
 23    -0.0696503853183592
 24     0.0271813750354491
 25     0.0246423900407067
 26     0.0294594545156687
 27     0.0196218685642024
 28    -0.3201075191990563
 29    -0.0202091595597295
 30    -0.4094691111152703
 31    -0.0255003203232095
 32     0.0001255876747590
 33    -0.0000355525659775
 34     0.0164087364660348
 35     0.0127411400322878
 36    -0.0000452481659675
 37    -0.0000003047477337
 38    -0.1540808563465867
 39    -0.0258346541967478
 40     0.0000295019827187
 41     0.0000010583861814
 42     0.1821827352414725
 43     0.0109122853814913
 44    -0.0000234393623728
 45    -0.0000042016244237
 46     0.1868835147978754
 47     0.1295697130957189
 48    -0.0000112468822693
 49     0.0000035427762270
 50    -0.0087098643073437
 51    -0.0269345351600142
 52     0.0000033644262550
 53    -0.0173078806372535
 54    -0.1273879017809729
 55     0.0213560295116985
 56     0.0164424900158705
 57     0.0082761080601963
 58     0.0686988629498464
 59    -0.0141090492529142
 60    -0.0055189419766136
 61     0.0173019487979446
 62    -0.1273989034122352
 63     0.0213556616160853
 64    -0.0163807827302823
 65    -0.0082746831454460
 66     0.0686769068785728
 67    -0.0141101666957934
 68     0.0054836280979997
 69    -0.0097886784186333
 70     0.0783735076138334
 71     0.0684918465087203
 72    -0.0096117678850694
 73    -0.0142434254203421
 74    -0.0329255195260663
 75     0.0532094412607531
 76     0.0165550280637785
 77     0.0097937969174162
 78     0.0783672721057265
 79     0.0684825331503036
 80     0.0096537651652326
 81     0.0142409126568849
 82    -0.0329665130139350
 83     0.0532373005089455
 84    -0.0165825453877889
 85     0.0022101048300500
 86    -0.1435959379432620
 87    -0.1118206165276502
 88     0.0055282264071207
 89     0.0034741958948506
 90    -0.0507349303691192
 91     0.0271829662038129
 92    -0.0085872532605926
 93    -0.0022159389138803
 94    -0.1435966928766736
 95    -0.1118070881392533
 96    -0.0055957721613404
 97    -0.0034708953386483
 98    -0.0507755991636315
 99     0.0272186947723986
 100     0.0085843160180113
 101    -0.0000049466942679
 102    -0.1423077958038645
 103    -0.1072438760016304
 104    -0.0000250873075965
 105    -0.0000026865737517
 106     0.0134228738858408
 107    -0.0009414389851234
 108    -0.0000088249355947
 109     0.0000347417297175
 110     0.2447101944071166
 111     0.1913491865065413
 112     0.0000359329636936
 113     0.0000116867561134
 114     0.1123505360975552
 115    -0.0752785150938355
 116     0.0000497615396083
 117    -0.0000491128236668
 118     0.2374379449385213
 119     0.1854292594113727
 120     0.0000735451002313
 121    -0.0000161271940044
 122     0.0772475692544994
 123    -0.0520053672524676
 124     0.0000128147499863
 125     0.0092631475390841
 126    -0.0033391746887609
 127    -0.0143093123516665
 128    -0.0017272121384523
 129    -0.0092701750091088
 130     0.0033349776935169
 131     0.0143043745147162
 132     0.0017262659051980
 133     0.0015657259077626
 134    -0.0041323770376485
 135     0.0089894793625492
 136    -0.0014853868528418
 137    -0.0015528584561148
 138     0.0041359740331392
 139    -0.0089848624679364
 140     0.0014857409027319
 141    -0.0044813556793651
 142    -0.0002758017988524
 143    -0.0133549784761204
 144    -0.0013853298225750
 145     0.0044865594765882
 146     0.0002749650738887
 147     0.0133600055506187
 148     0.0013846845229665
 149    -0.1461389634556848
 150     0.0138188354894061
 151     0.2170840441597505
 152    -0.0204815325969182
 153    -0.0000413595694381
 154     0.0000313019114650
 155     0.0006565731683257
 156    -0.0005107743798310
 157     0.0000133808724561
 158     0.0353064173315977
 159     0.0008188966558987
 160    -0.0644142484921027
 161    -0.0089259280083950
 162    -0.0911195396328994
 163     0.0343191164212579
 164     0.0067205335290342
 165    -0.0055182544644069
 166    -0.0263727724839073
 167     0.0411447196158342
 168     0.0045623355203841
 169     0.0194822662374837
 170     0.0459656747877904
 171     0.0510468724710255
 172    -0.0192353173298989
 173     0.0164373787988498
 174    -0.0048828850700779
 175     0.0147577822167642
 176    -0.0343282913876887
 177    -0.0449628183989687
 178    -0.0174220339896783
 179     0.0217820790443121
 180     0.0400332368497592
 181    -0.0149585265520711
 182     0.0120887278786358
 183    -0.0135610018961281
 184     0.0116121202677489
 Sym= 90A
 Ene= -0.049553
 Spin= Alpha
 Occup= 2.000000
  1    -0.0007423716535846
  2    -0.0000528648607888
  3    -0.0014983565119955
  4     0.0003509539492565
  5    -0.0022349542597933
  6     0.0011071096104361
  7    -0.0001933986677867
  8    -0.0002156097401594
  9     0.0006730818681573
 10    -0.0010580315269475
 11     0.0001725939090325
 12     0.0005601742547311
 13    -0.0011666969591948
 14     0.0014131338933745
 15    -0.0007044462612683
 16    -0.0004593094786511
 17    -0.0001737587428430
 18    -0.0004228494949153
 19     0.0008812841078506
 20    -0.0012503495420530
 21    -0.0002013533650195
 22    -0.0006051572084198
 23     0.0008233740129557
 24    -0.0004101735005822
 25    -0.0003579899762882
 26    -0.0004253202102977
 27    -0.0002473988431253
 28     0.0041336226701042
 29     0.0001506345073380
 30     0.0051791051520749
 31     0.0001856356077075
 32    -0.0000026300675292
 33     0.0000010251193171
 34    -0.0004162502437116
 35    -0.0003322924266977
 36     0.0000008812232242
 37    -0.0000003961319136
 38     0.0036049395750712
 39     0.0038255389558257
 40    -0.0000005643221145
 41    -0.0000039098042637
 42     0.0006877706873414
 43    -0.0031239631619706
 44    -0.0000081028241470
 45    -0.0000003373781178
 46    -0.0028153207120609
 47    -0.0022809011278409
 48    -0.0000004333627692
 49     0.0000000823907955
 50     0.0196100778062262
 51     0.0234700495376822
 52     0.0000031288957077
 53    -0.0004222450267588
 54     0.0021726969064500
 55    -0.0019674002869279
 56    -0.0016512581879300
 57     0.0009185449372314
 58    -0.0023363753420649
 59     0.0069806059273488
 60     0.0013473333371492
 61     0.0004208845220641
 62     0.0021784549658711
 63    -0.0019679295206519
 64     0.0016463625795591
 65    -0.0009179228668111
 66    -0.0023337855148025
 67     0.0069838947299234
 68    -0.0013436665803410
 69    -0.0000247404605227
 70    -0.0024052875467231
 71    -0.0014869303252628
 72    -0.0000123144590115
 73     0.0182767193671150
 74    -0.0215716818172765
 75    -0.0285131992634230
 76     0.0293868972195382
 77     0.0000244691300474
 78    -0.0024053927051160
 79    -0.0014865592303353
 80     0.0000114381080499
 81    -0.0182849544525520
 82    -0.0215891295774890
 83    -0.0285086086184498
 84    -0.0294108668404300
 85     0.0000114008749608
 86     0.0022596276389303
 87     0.0016361345077093
 88    -0.0000324710483385
 89    -0.0577605297423478
 90     0.0523517248923011
 91     0.0683528507501271
 92    -0.0625014266801801
 93    -0.0000113823667482
 94     0.0022597170244581
 95     0.0016359309243242
 96     0.0000333841518669
 97     0.0577694310493720
 98     0.0523313688592942
 99     0.0683909042756405
 100     0.0625174641061858
 101     0.0000000504051346
 102     0.0030303530075865
 103     0.0024404509604325
 104     0.0000005304448398
 105    -0.0000040888657516
 106    -0.0614500183576312
 107    -0.0815993440834735
 108    -0.0000209942848520
 109    -0.0000006207665875
 110    -0.0034735636980689
 111    -0.0027698152459740
 112    -0.0000003992997948
 113     0.0000152287644824
 114     0.2534882833184254
 115     0.3361291046270179
 116     0.0000151470905521
 117     0.0000009887009387
 118    -0.0039440066453475
 119    -0.0031465842935402
 120    -0.0000014328922913
 121    -0.0000477467801013
 122     0.2199243730288993
 123     0.2917308521515572
 124    -0.0000576403015368
 125    -0.0020747502454190
 126    -0.0003481583359701
 127     0.0040645703974458
 128     0.0030843366540605
 129     0.0020771892887252
 130     0.0003485376789504
 131    -0.0040638511389508
 132    -0.0030844388489099
 133     0.0000976053587998
 134     0.0001510216381394
 135    -0.0496723411830990
 136    -0.0049572493843407
 137    -0.0000977756778549
 138    -0.0001512869425073
 139     0.0496872539812984
 140     0.0049580683092549
 141    -0.0000799530820918
 142    -0.0000098614742136
 143     0.0350725840112909
 144    -0.0057290067780779
 145     0.0000799799724575
 146     0.0000099197337745
 147    -0.0350574455728106
 148     0.0057302305079734
 149     0.5354489595035923
 150    -0.0273847038963809
 151     0.4040035371495422
 152    -0.0206902053630744
 153     0.0000653803482379
 154    -0.0000532784509445
 155     0.0165259578976880
 156     0.0219803007622467
 157     0.0000209429934906
 158     0.0666416958669465
 159     0.1247245802116326
 160     0.0143472935645171
 161     0.0686209016260706
 162    -0.0268778843544410
 163     0.0128366186176053
 164     0.0308057997418468
 165     0.0478512291016486
 166    -0.0082531596422393
 167    -0.1364195934275312
 168    -0.0190473754703471
 169     0.0394275156127978
 170     0.0859296696994135
 171    -0.1753592359455705
 172     0.0854361522549436
 173     0.0344651751033651
 174     0.0207565725415745
 175    -0.0540434439941758
 176    -0.0564499286769254
 177     0.0369140649139553
 178    -0.1487254812353999
 179    -0.0469370336205920
 180     0.2020760905524298
 181    -0.0978731518602419
 182     0.0093900391945575
 183     0.0314143029214678
 184     0.0624924557798526
 Sym= 91A
 Ene= -0.042241
 Spin= Alpha
 Occup= 2.000000
  1     0.0004017088312848
  2     0.0317635340469641
  3     0.0006628433936909
  4     0.0545553570613231
  5    -0.0930347563358303
  6    -0.1005735973410308
  7    -0.0171661415456331
  8    -0.0099014076604351
  9     0.0901693809951012
 10    -0.0004937063324171
 11    -0.0636339757571198
 12    -0.0000076062346857
 13    -0.0000118179251645
 14    -0.0938428842400680
 15    -0.0997613583729970
 16    -0.0000029530851605
 17     0.0202320839745276
 18     0.0898383238952070
 19     0.0003949302766974
 20     0.0317336324664229
 21    -0.0006662163182820
 22    -0.0545277152584452
 23    -0.0929961239860339
 24    -0.1006069585328984
 25     0.0171556661473046
 26    -0.0098987011205393
 27     0.0901982991931419
 28    -0.0002409581865497
 29    -0.0000740379409801
 30    -0.0000212654491850
 31     0.0000050953169157
 32    -0.7115141175315978
 33     0.4637873976464936
 34     0.0000044867805775
 35     0.0000316505429838
 36     0.1844247058717430
 37     0.0049848189269607
 38    -0.0000034521256640
 39    -0.0000038764266409
 40    -0.0087958834087858
 41     0.0005297251519982
 42     0.0000104800790933
 43     0.0000038008411918
 44    -0.0000309492504964
 45     0.0018308480786880
 46     0.0000257309385474
 47     0.0000219889749324
 48     0.0042176029826351
 49     0.0003071676977641
 50     0.0000178552323326
 51    -0.0000157729876666
 52    -0.0005127622489685
 53     0.0002336794529655
 54    -0.0011619855072846
 55     0.0020375904079502
 56     0.0010498825132930
 57     0.0007443121705543
 58    -0.0021416675879804
 59    -0.0003040665352109
 60    -0.0017810143665047
 61     0.0002389905424486
 62     0.0011377566806330
 63    -0.0020283960587121
 64     0.0010475213786585
 65     0.0007393479763299
 66     0.0021314186331540
 67     0.0002969686646042
 68    -0.0017842581059295
 69     0.0109524098205246
 70     0.0003210670178261
 71    -0.0008965743720495
 72    -0.0226742056516049
 73     0.0000909006170152
 74    -0.0000313331237837
 75     0.0002570616654950
 76    -0.0000287384319751
 77     0.0109467615609348
 78    -0.0003119304254172
 79     0.0009037160766413
 80    -0.0226654063987404
 81     0.0000930174137583
 82     0.0000410349997730
 83    -0.0002598261476700
 84    -0.0000306766158256
 85    -0.0114240416802242
 86    -0.0087219959475028
 87     0.0108183297623520
 88     0.0209432107351673
 89     0.0000214508565803
 90    -0.0002416268945473
 91     0.0001439471671919
 92    -0.0000489918910259
 93    -0.0114027344918414
 94     0.0086567451691440
 95    -0.0108468274536648
 96     0.0209205636735636
 97     0.0000207642404108
 98     0.0002098027193379
 99    -0.0001215504865330
 100    -0.0000482109649956
 101     0.0433160232805353
 102    -0.0000012625395544
 103     0.0000019163680803
 104    -0.0832712097365745
 105     0.0000726165674040
 106    -0.0000150451037269
 107     0.0000122889683198
 108    -0.0000436010395301
 109    -0.0924986295744740
 110    -0.0000074835464410
 111     0.0000759129892008
 112     0.1028271595807456
 113    -0.0000152020006998
 114     0.0000218549038694
 115    -0.0000170529315491
 116     0.0000031977062830
 117     0.2258261194510968
 118     0.0000280020633328
 119     0.0000954287678711
 120    -0.2614954230822530
 121     0.0000234535813098
 122     0.0000243188878576
 123    -0.0000190179789440
 124     0.0000128541879823
 125    -0.0004936281309096
 126     0.0005606485190960
 127    -0.0010999758931463
 128    -0.0001936064565553
 129    -0.0004989565338916
 130     0.0005604435443719
 131    -0.0010950261036483
 132    -0.0001938738487785
 133    -0.0113021270817897
 134    -0.0010919258998295
 135     0.0000276880654155
 136     0.0000864899889595
 137    -0.0112908406339517
 138    -0.0010902640401574
 139     0.0000261318823013
 140     0.0000863557447976
 141    -0.0114989764745067
 142     0.0000955975796843
 143    -0.0000596342509509
 144    -0.0000148620872323
 145    -0.0115062796440701
 146     0.0001012959381767
 147    -0.0000577662096637
 148    -0.0000146849702978
 149    -0.0000218057485911
 150     0.0000002203318157
 151     0.0000279401104888
 152    -0.0000002896707336
 153    -0.0000657865010252
 154     0.0000360012300990
 155     0.0000031768504095
 156    -0.0000024965418366
 157    -0.0000129179177986
 158     0.0000027877469298
 159     0.0000024006236607
 160    -0.0000058959252012
 161    -0.0000063588474382
 162    -0.0000173362847940
 163     0.0000025893468320
 164     0.0000026942054482
 165    -0.0000021942196433
 166    -0.0000105299948353
 167     0.0000061212189888
 168    -0.0000039937162293
 169     0.0000030176414852
 170     0.0000063019007515
 171     0.0000002977272952
 172    -0.0000101126069476
 173     0.0000030250861729
 174     0.0000002668508970
 175    -0.0000045329534918
 176    -0.0000051813936256
 177    -0.0000042494606010
 178    -0.0000018944227725
 179     0.0000075101090112
 180    -0.0000023266864690
 181    -0.0000081650034051
 182     0.0000011092381419
 183    -0.0000034726045608
 184    -0.0000054391717990
 Sym= 92A
 Ene= -0.036405
 Spin= Alpha
 Occup= 2.000000
  1     0.0048102992342183
  2    -0.0002456574006330
  3     0.0102209336206833
  4    -0.0042986133953977
  5     0.0179778604523307
  6    -0.0177550531700516
  7     0.0036261363017847
  8     0.0033844066495613
  9    -0.0063348843171285
 10     0.0069770891080308
 11    -0.0023590652618735
 12    -0.0056007131691500
 13     0.0115570274554666
 14    -0.0111134373980572
 15     0.0110377282083679
 16     0.0062888816581172
 17     0.0030044220148391
 18     0.0039036323686072
 19    -0.0077954529092107
 20     0.0124557481001768
 21     0.0004694020530324
 22     0.0054952738323684
 23    -0.0068863279668095
 24     0.0067504865918632
 25     0.0052188975635531
 26     0.0054955442964951
 27     0.0024236715580656
 28    -0.0336741376422151
 29     0.0004344985355230
 30    -0.0435173858351089
 31     0.0005640007981024
 32    -0.0000275767706602
 33     0.0000272346251874
 34     0.0103738397936768
 35     0.0080027675313452
 36     0.0000039991285954
 37     0.0000028239095410
 38    -0.1931046600164590
 39     0.0030823691554088
 40     0.0000329637965859
 41     0.0000059218418358
 42     0.1362063864989236
 43    -0.0309580494112536
 44    -0.0000050380304794
 45     0.0000010144875441
 46     0.0407202503155560
 47     0.0157983747330557
 48    -0.0000032144796568
 49    -0.0000020107801080
 50    -0.2893346623395190
 51     0.2060324650296607
 52    -0.0000092149657519
 53     0.0054377551857400
 54    -0.0544680704888661
 55    -0.0075577290352535
 56     0.0145939418534718
 57    -0.0259405271579183
 58     0.1607950125151713
 59     0.0269947124538111
 60    -0.0269641470114281
 61    -0.0054341682934979
 62    -0.0544575398593664
 63    -0.0075589633378709
 64    -0.0145557171050645
 65     0.0259317734242832
 66     0.1608050852454657
 67     0.0269907546175059
 68     0.0268852825167172
 69    -0.0134633895105453
 70     0.0490060598308535
 71     0.0555981815872257
 72    -0.0116712902053130
 73    -0.0076816994623375
 74    -0.1202515174008748
 75     0.0990915376930195
 76     0.0085396776251770
 77     0.0134678784572641
 78     0.0490061763413521
 79     0.0555930572292833
 80     0.0116919384201254
 81     0.0077146911141904
 82    -0.1202265752605562
 83     0.0990715729039333
 84    -0.0085338098037285
 85     0.0035060352693771
 86    -0.0212177109195105
 87    -0.0206392650767047
 88     0.0054505457636360
 89     0.0022302210710711
 90     0.1911685070026820
 91    -0.1489426786494077
 92    -0.0049490999752999
 93    -0.0035088666570963
 94    -0.0212111167155489
 95    -0.0206329254332239
 96    -0.0054589532416480
 97    -0.0022618517550759
 98     0.1911556992635660
 99    -0.1489622743885982
 100     0.0049735693939312
 101     0.0000022419622060
 102    -0.0674225099137449
 103    -0.0475143244727618
 104    -0.0000204322223238
 105     0.0000323016077370
 106     0.2618645162385258
 107    -0.1967834732064412
 108     0.0001433269260844
 109    -0.0000001078252998
 110     0.0347208204448810
 111     0.0270948051921937
 112     0.0000114883293644
 113    -0.0000761136840729
 114    -0.2431682622768953
 115     0.1860920988891967
 116    -0.0001775855924128
 117     0.0000049138258182
 118     0.0584869503667248
 119     0.0453077441374195
 120    -0.0000017672166227
 121     0.0001895206275989
 122    -0.3177706793877385
 123     0.2431778098590017
 124     0.0000743474743793
 125    -0.0144972718892519
 126    -0.0027485024987136
 127     0.0071450878440086
 128    -0.0065184402156587
 129     0.0144899699015589
 130     0.0027458086198671
 131    -0.0071535035471167
 132     0.0065147948103686
 133     0.0038638409263680
 134    -0.0027895085086073
 135     0.0014663383118713
 136    -0.0034722673313833
 137    -0.0038640613963365
 138     0.0027898505729955
 139    -0.0014817545569870
 140     0.0034748243508795
 141    -0.0068076374300280
 142    -0.0005054736299010
 143    -0.0046685437195035
 144    -0.0002316163989194
 145     0.0068057590444821
 146     0.0005050678432506
 147     0.0046424038977119
 148     0.0002303004188050
 149     0.2135564007854797
 150     0.0024235328982001
 151    -0.2796523274975615
 152    -0.0030093004517051
 153    -0.0003690330807997
 154     0.0002254150248168
 155    -0.0513265811790924
 156     0.0393700991802134
 157    -0.0001359417785609
 158    -0.0309479512036488
 159    -0.0011612339732032
 160     0.0642394311315654
 161     0.0241628318161450
 162     0.1079621951321320
 163    -0.1043252339384228
 164    -0.0206379011401108
 165     0.0193476956445383
 166     0.0388838007158272
 167    -0.0435216984798334
 168    -0.0132198595289272
 169    -0.0327217335614808
 170    -0.0690092894514356
 171    -0.0661544654443336
 172     0.0642215546447042
 173    -0.0380039918878763
 174     0.0172058651985198
 175    -0.0238616511651331
 176     0.0466222520838901
 177     0.0739890002479149
 178     0.0048897018708282
 179    -0.0330042603422971
 180    -0.0418998110828020
 181     0.0397878722992279
 182    -0.0309769897095362
 183     0.0331340458734057
 184    -0.0151631967170253
 Sym= 93A
 Ene= -0.035254
 Spin= Alpha
 Occup= 2.000000
  1     0.0000015040656156
  2     0.0000022507756513
  3     0.0000037179145502
  4     0.0000015381101010
  5     0.0000015898411477
  6    -0.0000221385471369
  7     0.0000008221123852
  8     0.0000012700927334
  9     0.0000060214471665
 10     0.0000064843405942
 11    -0.0000062837638401
 12    -0.0000033036763951
 13     0.0000068611454874
 14    -0.0000154354089507
 15    -0.0000042469990435
 16     0.0000038365206755
 17     0.0000036178926687
 18     0.0000120117774131
 19    -0.0000057867811522
 20     0.0000098361737034
 21     0.0000023363003454
 22    -0.0000008986288901
 23    -0.0000128924962708
 24    -0.0000070259954119
 25     0.0000046602426213
 26     0.0000025067570189
 27     0.0000111841923806
 28    -0.0000195312072910
 29     0.0000003208362615
 30    -0.0000252073119758
 31     0.0000004228613670
 32    -0.0000538186207916
 33     0.0000455196665906
 34     0.0000064512224356
 35     0.0000049900667339
 36     0.0000181019461542
 37    -0.0006780502472871
 38    -0.0001205909812278
 39     0.0000017474907435
 40    -0.0001069164962595
 41    -0.0077837011058060
 42     0.0000799804695894
 43    -0.0000198018235921
 44    -0.0137839953007187
 45    -0.0005245310440917
 46     0.0000236473443214
 47     0.0000087987865715
 48    -0.0007515257744716
 49    -0.0007268698970522
 50    -0.0001870008133372
 51     0.0001307370765882
 52     0.0080031855757443
 53    -0.0013153185361208
 54    -0.0026392346595947
 55     0.0003566097441266
 56    -0.0027947762532443
 57     0.0000065144569395
 58    -0.0009036505490019
 59    -0.0030584533591309
 60     0.0017509099428610
 61    -0.0013228524226221
 62     0.0025733890630883
 63    -0.0003664114385378
 64    -0.0028144904876373
 65     0.0000402070387429
 66     0.0011077382935843
 67     0.0030916863714859
 68     0.0017851064082722
 69    -0.0001294017357759
 70     0.0001585817920338
 71    -0.0001659727545816
 72    -0.0000515310063673
 73    -0.0125863725829050
 74     0.0001856028294477
 75     0.0018344794940644
 76    -0.0311920204967091
 77    -0.0001126118814295
 78    -0.0000978030749625
 79     0.0002349247958914
 80    -0.0000369351403943
 81    -0.0125726108076994
 82    -0.0003318634593375
 83    -0.0017126567176758
 84    -0.0311953325226707
 85    -0.0000415450567840
 86    -0.0001869717496891
 87    -0.0001137082242768
 88    -0.0000600971634995
 89     0.0118066178471586
 90    -0.0100178358664912
 91    -0.0119456512000855
 92     0.0305486591980242
 93    -0.0000459287492476
 94     0.0001624711879742
 95     0.0000895681751355
 96    -0.0000668268083546
 97     0.0117875745397272
 98     0.0102498221718776
 99     0.0117445160785548
 100     0.0305377643123573
 101    -0.0000806849955208
 102    -0.0000414469073434
 103    -0.0000292055605604
 104    -0.0000655323321593
 105    -0.0397338181463223
 106     0.0001783416004279
 107    -0.0001302705289626
 108    -0.0943547622112495
 109     0.0000011078852235
 110     0.0000202331627776
 111     0.0000158140745118
 112     0.0000213617130814
 113     0.0827724945069895
 114    -0.0002197068304869
 115     0.0000997455629007
 116     0.1163672186291069
 117     0.0000129098340008
 118     0.0000352505664279
 119     0.0000273388026716
 120    -0.0000317664486172
 121    -0.2188096632356659
 122    -0.0001544227180398
 123     0.0000650553049845
 124    -0.2678259652733289
 125     0.0016386417146095
 126     0.0002818176731280
 127     0.0009137273834980
 128    -0.0007306404548787
 129     0.0016568735817092
 130     0.0002850997542440
 131     0.0009050798059260
 132    -0.0007214875399716
 133     0.0000268082455006
 134    -0.0001559387009658
 135     0.0155812534418765
 136     0.0014287822679281
 137     0.0000220871818802
 138    -0.0001524600029002
 139     0.0155691598427494
 140     0.0014321086509604
 141     0.0000591124965969
 142     0.0000206220106276
 143     0.0152044518815921
 144     0.0001800079264673
 145     0.0000675269591546
 146     0.0000212482432608
 147     0.0152178274253038
 148     0.0001763209309810
 149    -0.0000690110475739
 150    -0.0000070880541763
 151    -0.0001417626746337
 152     0.0000346147535371
 153     0.6895581493831345
 154    -0.4897518335130485
 155    -0.0000317902377565
 156    -0.0000069790184283
 157     0.1848858042277034
 158    -0.0069071950794545
 159    -0.0271791206458487
 160     0.0119339566120154
 161     0.0469287272195477
 162     0.0892346841456139
 163     0.0962665127953674
 164    -0.0156510850484226
 165     0.0090850320191980
 166     0.1027810798825535
 167     0.0138916948135030
 168     0.0542188629478233
 169     0.0000114427266700
 170    -0.0001260492465514
 171     0.0893030365270715
 172     0.0961257889052825
 173    -0.0000608699954444
 174    -0.0183279877262469
 175     0.1027008555267682
 176    -0.0068571182065150
 177    -0.0269730375280505
 178    -0.0118245924417238
 179    -0.0468269168097135
 180     0.0889299856956795
 181     0.0966256001152942
 182     0.0155295767452852
 183     0.0090843172383950
 184     0.1029107272819126
 Sym= 94A
 Ene= -0.002134
 Spin= Alpha
 Occup= 2.000000
  1     0.0167145838270669
  2    -0.0919805987692634
  3     0.0039133710885764
  4     0.1204975953858632
  5    -0.0413777834762769
  6     0.4105081940722083
  7    -0.0576959758839565
  8    -0.2411225897652577
  9    -0.0126938087914646
 10     0.0184257633728845
 11     0.0884125845243576
 12     0.0034659180154837
 13    -0.0318633699713027
 14     0.0617509582834913
 15    -0.6301378219894948
 16    -0.0403892945941217
 17    -0.2593241780113251
 18     0.0203463853640689
 19     0.0174454312597652
 20    -0.1339036393267099
 21     0.0017328725102239
 22    -0.1131140426249148
 23    -0.0205268834943870
 24     0.2217829634067905
 25    -0.0278238106664727
 26    -0.2374394060997790
 27    -0.0080875089759008
 28    -0.2372528688783528
 29    -0.0461674582983621
 30    -0.0367094524991575
 31    -0.0079336821674303
 32    -0.0003419666720622
 33    -0.0004806765382197
 34    -0.0362553619043054
 35    -0.1976834294364389
 36     0.0002234730488393
 37     0.0000098086889248
 38    -0.0021901719073378
 39    -0.0028247385288159
 40    -0.0000145641398134
 41     0.0000011738771548
 42     0.0185803872898547
 43     0.0008897568421262
 44    -0.0000031066324640
 45     0.0000027667467711
 46     0.0383607573138594
 47     0.0307429272483363
 48     0.0000022352980784
 49     0.0000003914600263
 50    -0.0009464784192434
 51    -0.0009653193531264
 52     0.0000000481906254
 53    -0.0031566070195169
 54    -0.0174486457102957
 55     0.0040146101721887
 56     0.0027205745686955
 57     0.0008668551411371
 58     0.0011996704500196
 59    -0.0011000955431469
 60    -0.0011383832310780
 61     0.0031573569354941
 62    -0.0174495335008548
 63     0.0040069993262329
 64    -0.0027114354942763
 65    -0.0008641607739428
 66     0.0012042797404826
 67    -0.0010994336336780
 68     0.0011324529271920
 69     0.0029843562130847
 70    -0.0015998651683306
 71    -0.0043007952830044
 72    -0.0043252929519811
 73    -0.0013469429375731
 74    -0.0041794656812515
 75     0.0052419572031012
 76     0.0010569342343942
 77    -0.0029319177193312
 78    -0.0016002576719963
 79    -0.0043000131777886
 80     0.0042367875117701
 81     0.0013468592790332
 82    -0.0041797115513853
 83     0.0052415355747589
 84    -0.0010603720586864
 85    -0.0119021449560879
 86    -0.0425622342819587
 87    -0.0190201735105908
 88     0.0092478843661325
 89     0.0005484527665370
 90    -0.0013972666397010
 91     0.0003151237509989
 92    -0.0003308747506549
 93     0.0118486078232012
 94    -0.0425269949737497
 95    -0.0190626343123030
 96    -0.0091893502422383
 97    -0.0005479665910488
 98    -0.0013973116174803
 99     0.0003160564344043
 100     0.0003319136116373
 101     0.0001218720776586
 102     0.0152480029503753
 103     0.0029143815407397
 104    -0.0001963699801364
 105    -0.0000012951882598
 106     0.0055925670202673
 107    -0.0035547826349331
 108    -0.0000013704464629
 109    -0.0001969277346823
 110     0.0199859660732204
 111     0.1260944209859423
 112     0.0002046792089441
 113     0.0000013152729071
 114     0.0023572523906611
 115    -0.0036843432590412
 116     0.0000029413704075
 117     0.0007970892424305
 118    -0.0059007698473257
 119     0.0212552041520367
 120    -0.0007560527307764
 121    -0.0000096436799636
 122    -0.0027562783560410
 123     0.0013395475636816
 124    -0.0000098931530715
 125     0.0010317347020588
 126    -0.0002939534615833
 127    -0.0017233772621710
 128    -0.0002776161401190
 129    -0.0010344043593114
 130     0.0002967966480156
 131     0.0017199910829099
 132     0.0002766862034912
 133    -0.0046642960509106
 134    -0.0006593922940030
 135     0.0005314659677045
 136    -0.0001667924475949
 137     0.0046229810317258
 138     0.0006561246969508
 139    -0.0005307316503174
 140     0.0001671743403311
 141     0.0026735317403945
 142    -0.0035985033130530
 143    -0.0007756620966593
 144    -0.0000135165728258
 145    -0.0027182136577450
 146     0.0035878889799825
 147     0.0007762183706052
 148     0.0000137246518686
 149    -0.0077738579272655
 150     0.0017179780517850
 151     0.0053041366320511
 152    -0.0013387533804797
 153    -0.0000048965591931
 154    -0.0000014434625144
 155    -0.0056598078729617
 156     0.0067346354155775
 157    -0.0000070957678523
 158     0.0004938826078318
 159     0.0005979342222292
 160    -0.0004183171497845
 161     0.0045795853520220
 162     0.0027538181304289
 163    -0.0254339432407091
 164    -0.0071099485011917
 165     0.0084010157059312
 166    -0.0006610831187904
 167     0.0006025852669725
 168    -0.0030388731160519
 169    -0.0005656076713151
 170    -0.0050058352810792
 171    -0.0021531874363069
 172     0.0214734222622039
 173    -0.0062977946991000
 174     0.0088415181922491
 175     0.0006768498979874
 176     0.0006715486047565
 177     0.0071921754870547
 178    -0.0004035190377189
 179    -0.0034375861403168
 180    -0.0005958486379149
 181     0.0038742215694337
 182    -0.0061355867482581
 183     0.0078673193079417
 184    -0.0000136766060326
 Sym= 95A
 Ene= -0.001481
 Spin= Alpha
 Occup= 2.000000
  1     0.0022813428416304
  2    -0.1390194353914154
  3    -0.0170741462303666
  4    -0.0008795919139362
  5     0.0503549351660216
  6    -0.4888981085947235
  7     0.2453411403484553
  8    -0.0309160638512127
  9     0.0147462188165836
 10     0.0038024580180303
 11     0.0156117005751630
 12    -0.0169285920789024
 13     0.1804266155035031
 14     0.0100311824754353
 15    -0.1127026854744510
 16     0.2327389907342496
 17    -0.0466823271767066
 18     0.0044004169933161
 19     0.0032691573682937
 20     0.0995177079465041
 21    -0.0184296313778926
 22    -0.0419581141054827
 23    -0.0604112506324266
 24     0.6019855995795905
 25     0.2511904898714868
 26    -0.0546557137281068
 27    -0.0192682675014260
 28    -0.0464277254780105
 29    -0.0081768844935404
 30     0.2344944740995429
 31     0.0454107371262818
 32    -0.0000935685663388
 33    -0.0001217325843396
 34     0.1998163199358415
 35    -0.0335718755224454
 36     0.0000657159175027
 37     0.0000016996089333
 38    -0.0000143519188061
 39     0.0027883727374837
 40    -0.0000019261794145
 41     0.0000002498323826
 42    -0.0167347741937878
 43    -0.0006118327371894
 44     0.0000025552846832
 45     0.0000023168719732
 46    -0.0378297353600371
 47    -0.0269096999870187
 48     0.0000017796641203
 49    -0.0000000981693825
 50    -0.0009604412746686
 51     0.0022906161032740
 52    -0.0000004933820203
 53     0.0036722031107746
 54     0.0158494886013352
 55    -0.0031773327622479
 56    -0.0030027940121814
 57    -0.0011775097583225
 58    -0.0001853924372729
 59     0.0011713765474758
 60     0.0012750992496347
 61    -0.0036707388013175
 62     0.0158507587399276
 63    -0.0031778763878400
 64     0.0029956636900651
 65     0.0011775599916459
 66    -0.0001823826142579
 67     0.0011712407320813
 68    -0.0012745953732641
 69     0.0033262556236322
 70     0.0044163924730303
 71     0.0016234804254429
 72    -0.0045368300767784
 73     0.0012859533527505
 74     0.0036413980984269
 75    -0.0047552305829741
 76    -0.0007368871132019
 77    -0.0033155017971332
 78     0.0044200743366089
 79     0.0016242479318293
 80     0.0045168117528311
 81    -0.0012844806196183
 82     0.0036416211597754
 83    -0.0047552172391642
 84     0.0007416069601311
 85    -0.0127824336571099
 86     0.0268544676787301
 87     0.0346668196442905
 88     0.0096908951654429
 89    -0.0009059678695722
 90     0.0032105576680288
 91    -0.0012278313009431
 92    -0.0000994581249108
 93     0.0127744105952010
 94     0.0268650080256763
 95     0.0346589191564489
 96    -0.0096598270374104
 97     0.0009045227649338
 98     0.0032101665717611
 99    -0.0012295610624953
 100     0.0000975002679313
 101     0.0000275611418366
 102    -0.0071371647543719
 103    -0.0141692807058531
 104    -0.0000473829164803
 105     0.0000033517252821
 106    -0.0048072338192415
 107     0.0025241922769417
 108     0.0000052122783931
 109    -0.0000465972741396
 110    -0.1255915067236799
 111     0.0243087663463305
 112     0.0000339553779927
 113    -0.0000037875706152
 114    -0.0036404969244549
 115     0.0084722888845610
 116    -0.0000068921347020
 117     0.0001760580044010
 118    -0.0178930165750215
 119     0.0132078860316177
 120    -0.0001669510226723
 121     0.0000235083419697
 122     0.0018667598188186
 123     0.0008340044225157
 124     0.0000220380791627
 125    -0.0008476869941583
 126     0.0011731188723876
 127     0.0016351464347845
 128     0.0001866525041771
 129     0.0008480934187195
 130    -0.0011720557730904
 131    -0.0016349972188361
 132    -0.0001864740243291
 133    -0.0049787512194748
 134     0.0000190126466394
 135    -0.0006852184403972
 136     0.0001029712868954
 137     0.0049671099537103
 138    -0.0000208839556254
 139     0.0006837376473907
 140    -0.0001030553560026
 141     0.0026167820813048
 142    -0.0040111386055357
 143     0.0008046734400693
 144    -0.0000875000364161
 145    -0.0026284950431430
 146     0.0040096459620265
 147    -0.0008061232553120
 148     0.0000869522589427
 149     0.0169506655259845
 150    -0.0033567873875097
 151    -0.0076442191117593
 152     0.0017099328001913
 153     0.0000067444875301
 154    -0.0000006267649207
 155     0.0070254873000177
 156    -0.0126976170912792
 157     0.0000114477384636
 158    -0.0010226666995345
 159    -0.0033301981629870
 160     0.0007766314865080
 161    -0.0085354826903731
 162    -0.0039455573698344
 163     0.0402392540516954
 164     0.0096447535442361
 165    -0.0164414544130171
 166     0.0013521911295741
 167    -0.0013943621759943
 168     0.0059389383904547
 169     0.0006306836602038
 170     0.0063521297804908
 171     0.0038754116230045
 172    -0.0424199616034949
 173     0.0081257578061454
 174    -0.0175883777987761
 175    -0.0016253115600882
 176    -0.0010766739223183
 177    -0.0117217247015405
 178     0.0003891610908521
 179     0.0070388270399453
 180     0.0000608536467917
 181     0.0023526122526215
 182     0.0075565115713512
 183    -0.0156904141379097
 184     0.0002729787701834
 Sym= 96A
 Ene= -0.000936
 Spin= Alpha
 Occup= 2.000000
  1    -0.0004587697764188
  2    -0.0060264219781660
  3    -0.0014198259452292
  4    -0.0037504082492610
  5     0.0041038425922975
  6    -0.0442075940962110
  7     0.0176569253118060
  8     0.0056350682952850
  9     0.0016665248569606
 10    -0.0004662483911219
 11    -0.0017238803727286
 12    -0.0010076690558427
 13     0.0123465347291287
 14    -0.0010326302585083
 15     0.0125167015201559
 16     0.0161547824099624
 17     0.0052164885865909
 18    -0.0005534767833641
 19    -0.0001082014684824
 20     0.0103418225887471
 21    -0.0011992667828212
 22     0.0007509645112620
 23    -0.0030680727774274
 24     0.0316432528464197
 25     0.0169951178392822
 26     0.0038745199994167
 27    -0.0011049193207161
 28     0.0054767341507483
 29     0.0008981296315519
 30     0.0175066404256743
 31     0.0031275661172091
 32     0.0000054856017682
 33     0.0000075000449747
 34     0.0133525706629561
 35     0.0035856068739758
 36    -0.0000029112685137
 37    -0.0000010832067911
 38     0.0156071805814635
 39    -0.0005984156345661
 40    -0.0000027686419842
 41    -0.0000072171860572
 42    -0.0027240783661246
 43     0.0023985058585738
 44    -0.0000110332824774
 45    -0.0000002771432963
 46    -0.0027612214076047
 47    -0.0012393143666650
 48    -0.0000000562336219
 49    -0.0000008220355312
 50     0.0308650275384268
 51    -0.0269696990541816
 52     0.0000049060430018
 53    -0.0004412481409643
 54     0.0008944882688376
 55     0.0006263883391024
 56    -0.0011031991055209
 57     0.0025202022684814
 58    -0.0147064400388983
 59    -0.0035159567509921
 60     0.0023025584602069
 61     0.0004391007010798
 62     0.0008974677313180
 63     0.0006262528636180
 64     0.0010984638924213
 65    -0.0025200326925020
 66    -0.0147077216920779
 67    -0.0035108423982140
 68    -0.0022943989126305
 69     0.0011915285808421
 70    -0.0033651938159598
 71    -0.0040728162476107
 72     0.0006770974668482
 73    -0.0042378891536503
 74     0.0059616218017921
 75     0.0007769462331616
 76    -0.0064532707567949
 77    -0.0011930113824655
 78    -0.0033650568920871
 79    -0.0040721637938341
 80    -0.0006772310570484
 81     0.0042053885127924
 82     0.0059597215306231
 83     0.0007768072158452
 84     0.0063928145848260
 85    -0.0007210307779298
 86     0.0027654658494175
 87     0.0028478665820908
 88    -0.0000399887302131
 89     0.0156501146933093
 90    -0.0399259723334035
 91     0.0100195800935386
 92     0.0138253044536051
 93     0.0007222648294606
 94     0.0027645677046746
 95     0.0028483045465272
 96     0.0000399439677027
 97    -0.0156207698861760
 98    -0.0399022167870507
 99     0.0100427163946476
 100    -0.0137810232112996
 101    -0.0000023220956635
 102     0.0039274446220541
 103     0.0024287642470726
 104     0.0000045726391025
 105    -0.0000665884474176
 106    -0.0019409729579578
 107     0.0199244296625061
 108    -0.0001265418432072
 109     0.0000034073725227
 110    -0.0092959145962346
 111    -0.0028829329351218
 112    -0.0000045710429107
 113     0.0000851074223665
 114    -0.0094301655568571
 115    -0.1405829246928660
 116     0.0001248760268138
 117    -0.0000145976980274
 118    -0.0040907008551777
 119    -0.0022321447190388
 120     0.0000135157548949
 121    -0.0004647867469523
 122    -0.0014783347160944
 123    -0.0562265703024679
 124    -0.0004264164978910
 125     0.0013759773109841
 126     0.0003018128361655
 127    -0.0008535256875467
 128     0.0000930336268759
 129    -0.0013735208240108
 130    -0.0003011783075352
 131     0.0008555927963360
 132    -0.0000946956880809
 133    -0.0004152038532570
 134     0.0002001751770236
 135     0.0077273711984822
 136     0.0008833711971756
 137     0.0004159931639173
 138    -0.0002004107455472
 139    -0.0076983786681568
 140    -0.0008809709713994
 141     0.0005650103716118
 142    -0.0001098383960409
 143    -0.0044732388086892
 144     0.0037170452766788
 145    -0.0005641160742055
 146     0.0001101410130836
 147     0.0045031923767693
 148    -0.0037075728673030
 149    -0.2722251610423583
 150     0.0495605795752473
 151    -0.0189108981607363
 152     0.0036997238943043
 153    -0.0000011834163143
 154     0.0000980897441273
 155     0.0140305454746387
 156     0.1813749700275537
 157    -0.0000850142194534
 158     0.0141424096256762
 159     0.1189112938493524
 160    -0.0037120414622295
 161     0.1128617775108807
 162     0.0227985244600387
 163    -0.2765390092495859
 164     0.0018569151545061
 165     0.2381475477108651
 166    -0.0123995494567954
 167     0.0232432531282322
 168    -0.0876130168027599
 169     0.0010209652332040
 170     0.0131704860614410
 171    -0.0530396623150834
 172     0.6319702032772609
 173     0.0171962837686352
 174     0.2635165009013756
 175     0.0278481063732760
 176     0.0145876684333751
 177     0.1011273018841406
 178     0.0065409234586777
 179    -0.1159002627845380
 180     0.0303890990108556
 181    -0.3579526785040908
 182     0.0352524417338831
 183     0.2404204605301629
 184    -0.0155440618489842
 Sym= 97A
 Ene= -0.000101
 Spin= Alpha
 Occup= 2.000000
  1    -0.0004993622190485
  2    -0.0027632227149287
  3    -0.0010650243578958
  4    -0.0032752667384274
  5     0.0024596526532623
  6    -0.0302398246488991
  7     0.0112148548612940
  8     0.0056391690099588
  9     0.0014109442308240
 10    -0.0005644180297757
 11    -0.0018002413047528
 12    -0.0004665633844495
 13     0.0074898931289797
 14    -0.0009523568191958
 15     0.0132630748468906
 16     0.0100176725985550
 17     0.0055746514080708
 18    -0.0006986090572203
 19    -0.0000184044132531
 20     0.0072098888308485
 21    -0.0007000613257870
 22     0.0013927954662127
 23    -0.0015040770799672
 24     0.0169240463928139
 25     0.0104530595249981
 26     0.0044379793312161
 27    -0.0007013382570462
 28     0.0063578690968020
 29     0.0009380649935371
 30     0.0120054208536243
 31     0.0019159407993912
 32     0.0000071440793951
 33     0.0000091125087653
 34     0.0077801973754691
 35     0.0035366096920208
 36    -0.0000039163954831
 37    -0.0000003793429466
 38     0.0228681714778030
 39    -0.0004948005836155
 40    -0.0000036335386660
 41     0.0000019823124982
 42    -0.0007489135884985
 43     0.0037011423851063
 44     0.0000023185634861
 45    -0.0000000642199804
 46    -0.0010541467849027
 47     0.0003214894391658
 48     0.0000003733399574
 49     0.0000015977915241
 50     0.0507094954022958
 51    -0.0362678710231655
 52     0.0000001257692636
 53    -0.0012853522053146
 54    -0.0000932821322499
 55     0.0011292749280892
 56    -0.0019485813182081
 57     0.0048715800374041
 58    -0.0216151250250960
 59    -0.0041374633551190
 60     0.0041013404462284
 61     0.0012856215018170
 62    -0.0000955236753020
 63     0.0011295729847642
 64     0.0019482661363585
 65    -0.0048700918450404
 66    -0.0216172349179080
 67    -0.0041386640151046
 68    -0.0040918241275640
 69     0.0015384397436795
 70    -0.0054305487687973
 71    -0.0062409503614489
 72     0.0011053091016319
 73     0.0027451053780128
 74     0.0030362342426331
 75    -0.0044281531296206
 76     0.0041722982081755
 77    -0.0015399122975405
 78    -0.0054302140887897
 79    -0.0062402892544532
 80    -0.0011057899297604
 81    -0.0027372001047169
 82     0.0030299923452159
 83    -0.0044232335530633
 84    -0.0041518828136326
 85    -0.0005407777902285
 86     0.0017403945654131
 87     0.0018477122602335
 88    -0.0004013388329542
 89    -0.0102309745594060
 90    -0.0394602886989210
 91     0.0431471577560451
 92    -0.0088265311064714
 93     0.0005420962904662
 94     0.0017387654001333
 95     0.0018478032056656
 96     0.0004005529844084
 97     0.0102255767771202
 98    -0.0394708707416754
 99     0.0431400379740488
 100     0.0087932225887332
 101    -0.0000026729830433
 102     0.0066458369260284
 103     0.0045704894591152
 104     0.0000059406148626
 105     0.0000201400476128
 106    -0.0203421177260454
 107     0.0038314211295170
 108     0.0000326853569410
 109     0.0000040296495119
 110    -0.0062734377169636
 111    -0.0032920896980697
 112    -0.0000049431694685
 113    -0.0000357405103306
 114     0.1405948156574141
 115    -0.0096974742118941
 116    -0.0000124492678100
 117    -0.0000168847092799
 118    -0.0052454893383657
 119    -0.0037159859551338
 120     0.0000155351640874
 121     0.0001326324405564
 122     0.0557325004576121
 123    -0.0055954664723615
 124     0.0001573477013322
 125     0.0020243754358160
 126     0.0002879269766593
 127    -0.0010124231725046
 128     0.0015682858089034
 129    -0.0020244406807640
 130    -0.0002878151063216
 131     0.0010125567930352
 132    -0.0015670942514685
 133    -0.0004024612504461
 134     0.0002550842134828
 135    -0.0047832434333043
 136    -0.0000392643241984
 137     0.0004034498196420
 138    -0.0002549443146578
 139     0.0047725156863831
 140     0.0000373556975036
 141     0.0007029251440723
 142    -0.0000029884486036
 143     0.0026769149448611
 144    -0.0025438153355266
 145    -0.0007018067041470
 146     0.0000032882438066
 147    -0.0026865139161775
 148     0.0025434094562334
 149    -0.0181423149389906
 150     0.0030393111324754
 151     0.2705630514856671
 152    -0.0483550434233520
 153    -0.0001727460993184
 154    -0.0001213437433327
 155    -0.1836201095512384
 156     0.0112032911767383
 157    -0.0001529932173490
 158     0.0055602317127973
 159    -0.1105106702926300
 160    -0.0203565215944773
 161     0.0290458345563844
 162     0.0493214007304524
 163    -0.5682226565183502
 164    -0.2520375379204290
 165     0.0287172331981052
 166    -0.0244825309408365
 167     0.0016521147608126
 168    -0.0056467551907884
 169    -0.0117825760121710
 170    -0.1759527210017880
 171    -0.0031529933201034
 172     0.0399869219740923
 173    -0.2335037684221726
 174     0.0169131678019819
 175     0.0019636594502750
 176    -0.0039254637305820
 177     0.1242743910053590
 178    -0.0196404153334741
 179     0.0148033828052739
 180    -0.0461901535740117
 181     0.5279116870654379
 182    -0.2504523723294120
 183     0.0017369131839011
 184     0.0226455340125084
 Sym= 98A
 Ene= 0.045694
 Spin= Alpha
 Occup= 2.000000
  1    -0.0846063001866153
  2    -0.0082772370851035
  3    -0.1471725168820171
  4    -0.0136305164680511
  5    -0.0538241316488189
  6    -0.1747659821644414
  7    -0.0113970390359547
  8    -0.0084430560686778
  9     0.3651866746190712
 10     0.1706798386249808
 11     0.0166232383905753
 12     0.0000236905775000
 13     0.0000122788040244
 14    -0.0537006082809658
 15    -0.1734836429105623
 16     0.0000637912890496
 17     0.0164001578512909
 18     0.3615011576515770
 19    -0.0845501142630217
 20    -0.0082545050196238
 21     0.1471223195120284
 22     0.0136202274869076
 23    -0.0537537900335773
 24    -0.1744244297195626
 25     0.0115991262112280
 26    -0.0084907873664485
 27     0.3651302716242417
 28    -0.0008852104866178
 29    -0.0000668254824555
 30     0.0002598010578504
 31     0.0000136722446076
 32     0.3904676699936354
 33     0.2229085637315179
 34    -0.0001180490181349
 35    -0.0015538652024798
 36    -0.1977499818007188
 37    -0.0029708435895431
 38     0.0004923809432318
 39    -0.0000402842644690
 40     0.0038588534506450
 41    -0.0002919901902269
 42     0.0006970829238807
 43     0.0000207505806973
 44     0.0001896537137469
 45    -0.0017578776518726
 46     0.0010011926795389
 47     0.0007779069885141
 48     0.0002902520373640
 49    -0.0000285672186168
 50     0.0001049749044463
 51    -0.0001120000605977
 52     0.0000139595051169
 53    -0.0004749285509880
 54    -0.0012012861192397
 55    -0.0008275518915471
 56     0.0001253382934967
 57    -0.0002887372077789
 58     0.0011381998900635
 59    -0.0000091182330287
 60     0.0004274828613192
 61    -0.0003087725021887
 62     0.0000518123339020
 63     0.0010239177163609
 64     0.0000079976021967
 65    -0.0003484010551981
 66    -0.0015396211568677
 67    -0.0000532264072578
 68     0.0004659163741229
 69    -0.0098308736020351
 70    -0.0002883774772175
 71    -0.0007104201839708
 72     0.0143057329365277
 73    -0.0001019404791640
 74    -0.0002125840183802
 75     0.0001871005110552
 76     0.0000733403676666
 77    -0.0099371550078161
 78    -0.0006214663088040
 79    -0.0001365189237184
 80     0.0143259064625328
 81    -0.0000096854363880
 82    -0.0001560725558014
 83     0.0002273054303460
 84     0.0000026212344325
 85     0.0100772243970779
 86     0.0065602197085058
 87    -0.0094695123560167
 88    -0.0097517533815031
 89     0.0000232366926944
 90    -0.0000317578864512
 91     0.0000142378853238
 92    -0.0000357746598410
 93     0.0102911045242081
 94    -0.0078736430667016
 95     0.0086838652773306
 96    -0.0098635836829857
 97    -0.0000008164725234
 98    -0.0000795564465469
 99     0.0000509202164339
 100    -0.0000048207529055
 101    -0.0494339760323406
 102     0.0009756844081621
 103     0.0006820457399322
 104     0.0703103995278669
 105    -0.0000237243199171
 106     0.0002516027714117
 107    -0.0001791384142923
 108     0.0000052794801901
 109     0.1037460884308830
 110     0.0001346577398338
 111     0.0010008397232718
 112    -0.0692207398228704
 113     0.0000251084977362
 114     0.0000155792271381
 115    -0.0000115901949986
 116    -0.0000018719801093
 117    -0.2878434203737565
 118    -0.0006670586501197
 119    -0.0006566827393676
 120     0.2570578301535703
 121    -0.0000399403192466
 122    -0.0001588867546669
 123     0.0001215517274888
 124    -0.0000298608343134
 125     0.0004108093682105
 126    -0.0007154041850652
 127     0.0002400013802829
 128     0.0000871529246166
 129     0.0003717514155399
 130    -0.0006991636034260
 131     0.0003135830990015
 132     0.0000990819677199
 133     0.0072865482886645
 134     0.0004758965488033
 135     0.0000134549958139
 136    -0.0000659111989446
 137     0.0073544572723682
 138     0.0004831873993744
 139    -0.0000054285675091
 140    -0.0000525884925666
 141     0.0082224963987243
 142     0.0006141263449946
 143    -0.0000244481659271
 144     0.0000022297510617
 145     0.0081527347328036
 146     0.0006870297373489
 147     0.0000170589784491
 148     0.0000054568953520
 149     0.0000433914271826
 150    -0.0000002100560888
 151    -0.0000572584741681
 152     0.0000002157084291
 153     0.0000517168183608
 154     0.0000301834046355
 155    -0.0000375454464935
 156     0.0000291340458873
 157     0.0000242909625772
 158     0.0000094583516040
 159     0.0000001807806606
 160    -0.0000133815503334
 161     0.0000001805262687
 162     0.0000052274739022
 163     0.0000313313225296
 164     0.0000286834779931
 165    -0.0000182386156093
 166    -0.0000174195480639
 167    -0.0000257144977011
 168     0.0000031548312251
 169    -0.0000090596028620
 170     0.0000016704643403
 171    -0.0000146339125025
 172    -0.0000543378799263
 173     0.0000118891977971
 174    -0.0000179234370949
 175    -0.0000656376823397
 176     0.0000213190970775
 177    -0.0000032101325703
 178     0.0000158458549928
 179    -0.0000017877572743
 180    -0.0000115934538924
 181    -0.0000438167174696
 182     0.0000152193816785
 183    -0.0000056547008222
 184    -0.0000590417671872
 Sym= 99A
 Ene= 0.048734
 Spin= Alpha
 Occup= 2.000000
  1    -0.0000121725685382
  2    -0.0000023468774687
  3    -0.0000247665931656
  4    -0.0000032160995178
  5    -0.0000209085049548
  6    -0.0000844350846695
  7     0.0000307838591155
  8     0.0000191251887901
  9     0.0000846522140569
 10     0.0000179772100334
 11     0.0000013881744299
 12     0.0000110720075234
 13     0.0000015375202171
 14     0.0000026805577129
 15     0.0000159415682226
 16     0.0000134577222936
 17     0.0000256818751955
 18     0.0000240121336930
 19     0.0000016106240597
 20     0.0000008838153354
 21     0.0000229744642013
 22     0.0000017680224840
 23    -0.0000008385760245
 24     0.0000035481013635
 25     0.0000208938448335
 26     0.0000036714101504
 27     0.0000328317605812
 28     0.0000459931013965
 29     0.0000000566301913
 30     0.0000616622154767
 31    -0.0000000005799668
 32     0.0000509494508335
 33     0.0000237387519928
 34    -0.0000485550752041
 35    -0.0000377153174592
 36    -0.0000284240815597
 37     0.0003362007264868
 38     0.0002730623949238
 39    -0.0000132094691706
 40     0.0002135514452051
 41     0.0036207160841283
 42     0.0002769760592047
 43     0.0000124975807476
 44     0.0047660866203059
 45     0.0000512067410897
 46     0.0002576070773737
 47     0.0002003939712222
 48     0.0000415135944930
 49     0.0013387856901430
 50     0.0002147239342781
 51    -0.0001843354957624
 52    -0.0002224009494373
 53     0.0003975542485024
 54     0.0013553721906961
 55     0.0000185225264578
 56     0.0005972428242200
 57     0.0003694656813054
 58    -0.0010172031457423
 59     0.0010872971752750
 60     0.0000131464956160
 61     0.0004476742725370
 62    -0.0017366454247834
 63     0.0000383040525371
 64     0.0005773374450085
 65     0.0003244781731366
 66     0.0006899733677603
 67    -0.0011418586481660
 68     0.0000000215595615
 69     0.0000852181050340
 70    -0.0002353886161391
 71    -0.0001538642167016
 72     0.0000549842773802
 73     0.0103628236343252
 74    -0.0000682287814125
 75     0.0000123930499993
 76     0.0164315474891214
 77     0.0000510966538960
 78    -0.0000789415915876
 79    -0.0001430507661022
 80     0.0000310536051936
 81     0.0104338845947231
 82    -0.0001369668600943
 83     0.0002296947863663
 84     0.0164508193970369
 85    -0.0000105845585969
 86    -0.0000524375550894
 87    -0.0000388377993154
 88    -0.0000256813822130
 89    -0.0103487502874227
 90     0.0073256547487785
 91     0.0096592938765547
 92    -0.0128782804068378
 93    -0.0000011671645285
 94    -0.0001904823997750
 95    -0.0001409226901211
 96    -0.0000155784118431
 97    -0.0104947738791649
 98    -0.0077469018168403
 99    -0.0095027351644463
 100    -0.0129667251992245
 101     0.0000141474765893
 102     0.0002743538083296
 103     0.0002028515950277
 104     0.0000248140115019
 105     0.0478380211770890
 106     0.0002036295973330
 107    -0.0000975926124121
 108     0.0750749263681150
 109     0.0000009234747462
 110     0.0000429301558394
 111     0.0000328134972946
 112    -0.0000211105692668
 113    -0.1011278696353414
 114    -0.0000185207076724
 115    -0.0006291032896808
 116    -0.0789766626605606
 117    -0.0000347154447300
 118    -0.0001825545936667
 119    -0.0001381534220472
 120     0.0000384233424869
 121     0.2904912690953733
 122    -0.0001980857672360
 123     0.0001713954760995
 124     0.2693563701205494
 125    -0.0003446286774149
 126    -0.0001090073590165
 127    -0.0004915022396296
 128     0.0007597253683435
 129    -0.0003674534991121
 130    -0.0001065681144836
 131    -0.0004666949836009
 132     0.0007621336527804
 133    -0.0000241739862924
 134     0.0000930412693911
 135    -0.0082163474049182
 136    -0.0006560573715803
 137    -0.0000211975630085
 138     0.0000904399005977
 139    -0.0082753818839979
 140    -0.0006563625582041
 141     0.0000128944044596
 142    -0.0000043277407595
 143    -0.0090919286846394
 144    -0.0006133991650681
 145    -0.0000030456142432
 146    -0.0000057742128814
 147    -0.0090463814676558
 148    -0.0006570166227068
 149    -0.0007526461526105
 150    -0.0000673993104668
 151    -0.0002210646369261
 152     0.0000695857672218
 153    -0.4024694388095172
 154    -0.1930775457886813
 155     0.0002023971751793
 156     0.0008373013098879
 157    -0.2091958317642621
 158    -0.0832644078594623
 159     0.0085015008336756
 160     0.1445746013053411
 161    -0.0141219008597093
 162     0.0494121114921822
 163     0.1648896545541802
 164    -0.0118736638057601
 165     0.0085727014430595
 166     0.3656548501547304
 167     0.1673476916757539
 168    -0.0170582909616223
 169     0.0000704152115719
 170     0.0000256396828515
 171     0.0493983690688742
 172     0.1637359085785264
 173     0.0000760000589953
 174    -0.0167386628979921
 175     0.3636286249437241
 176    -0.0832208641924640
 177     0.0084564234047474
 178    -0.1443587531328604
 179     0.0140991895083939
 180     0.0494000979547357
 181     0.1647271360270849
 182     0.0119876965419312
 183     0.0085550629336881
 184     0.3662721663760743
 Sym= 100A
 Ene= 0.053526
 Spin= Alpha
 Occup= 2.000000
  1     0.0011271683502587
  2     0.0012715485357705
  3     0.0066850070159398
  4     0.0009370717000202
  5     0.0186729618746398
  6     0.0776138829941929
  7    -0.0419525490395813
  8    -0.0257412887462405
  9    -0.0502253541751137
 10     0.0044845512941465
 11     0.0004251376081105
 12    -0.0146411081384256
 13    -0.0009927951333778
 14    -0.0117969135802821
 15    -0.0465197196332984
 16    -0.0152783998044688
 17    -0.0296236303707330
 18     0.0321657289503526
 19    -0.0162533514509766
 20    -0.0013660116203630
 21    -0.0057809432814411
 22     0.0002878789145041
 23    -0.0073065062033888
 24    -0.0312458561523546
 25    -0.0229885364092268
 26    -0.0043669240543320
 27     0.0207857400281802
 28    -0.0549393625178668
 29     0.0001748800676688
 30    -0.0736714362515752
 31     0.0003939331232487
 32     0.0009602033402820
 33     0.0005023688987705
 34     0.0671379473652376
 35     0.0517593831295847
 36    -0.0005497323231346
 37    -0.0000105022330383
 38    -0.2313921850179884
 39     0.0123224364278296
 40     0.0000641230798841
 41    -0.0000060464803589
 42    -0.2814563941639475
 43    -0.0074674174268688
 44     0.0000432071722066
 45     0.0000085960188538
 46    -0.3295590284137533
 47    -0.2533758704381874
 48     0.0000060093456039
 49     0.0000011877836575
 50    -0.0643478981008685
 51     0.0603829274874716
 52    -0.0000093123117691
 53     0.0280657057143176
 54     0.2156083819750914
 55    -0.0325630825308390
 56    -0.0182939683071878
 57    -0.0121361915495895
 58     0.1021682011187995
 59     0.0131322781863636
 60     0.0044329420903190
 61    -0.0280677995502196
 62     0.2156158679169620
 63    -0.0325437506947136
 64     0.0182062258791956
 65     0.0121324718438727
 66     0.1021916519973540
 67     0.0131308408295010
 68    -0.0044604547715901
 69    -0.0136766639897112
 70     0.1809823104457605
 71     0.1641154612595852
 72    -0.0096054159674286
 73     0.0184929151631757
 74     0.0813097527494198
 75    -0.0888520619862781
 76    -0.0138667767644438
 77     0.0136450007751751
 78     0.1809444709411929
 79     0.1640679245078775
 80     0.0097079894603402
 81    -0.0184831366577585
 82     0.0813041274170150
 83    -0.0888468306024434
 84     0.0139182242543115
 85     0.0039473316645965
 86     0.1627825639781737
 87     0.1218313791024278
 88     0.0039649968282173
 89    -0.0048514919140702
 90     0.0326796471460592
 91    -0.0212399962762904
 92     0.0060528185984043
 93    -0.0038961279443684
 94     0.1628227906378960
 95     0.1219148850351623
 96    -0.0039248604653702
 97     0.0048381646600479
 98     0.0326845835885620
 99    -0.0212651749460690
 100    -0.0060583870863849
 101    -0.0000915625680112
 102    -0.3368693510709114
 103    -0.2503542878411946
 104     0.0000504031240336
 105     0.0000317284758710
 106    -0.1143939151252983
 107     0.0821175831706010
 108     0.0000219884323205
 109     0.0002249416970160
 110    -0.0648215770214016
 111    -0.0493337334897115
 112    -0.0001668794141829
 113    -0.0000738129522466
 114    -0.0130786088872435
 115     0.0099255864329207
 116    -0.0000618347462010
 117    -0.0005645787781164
 118     0.2288053856442148
 119     0.1727241765132161
 120     0.0005336694871932
 121     0.0001797009948666
 122     0.0733186517043656
 123    -0.0559898493982615
 124     0.0002041816982593
 125    -0.0069589941306663
 126     0.0030801532223542
 127     0.0121569555051264
 128     0.0018163452494695
 129     0.0069707172437929
 130    -0.0030905388626111
 131    -0.0121493013200164
 132    -0.0018094543197016
 133     0.0004881227818131
 134    -0.0001021330773866
 135    -0.0034587520509874
 136     0.0026239474687678
 137    -0.0004826918923150
 138     0.0000966327346998
 139     0.0034492816550430
 140    -0.0026233197149769
 141    -0.0070041318513295
 142    -0.0007853778986938
 143     0.0081978043256593
 144     0.0006369086391229
 145     0.0070182480392450
 146     0.0007821946895858
 147    -0.0082078039591254
 148    -0.0006359312334513
 149    -0.0183440078770350
 150    -0.0000421667374710
 151     0.0243418226820573
 152     0.0001084027939159
 153    -0.0003253772818657
 154    -0.0001289441643232
 155     0.0203021801354334
 156    -0.0157805534488346
 157    -0.0001875347110609
 158     0.0004019967145570
 159    -0.0004189532385240
 160    -0.0022093683663453
 161     0.0003033468765130
 162    -0.0058463812943755
 163    -0.0238610641469894
 164    -0.0130159647774305
 165     0.0079509374104545
 166    -0.0155164836189705
 167     0.0014892850382429
 168    -0.0001498963330467
 169     0.0045095775015552
 170    -0.0002719981603593
 171     0.0037030026030642
 172     0.0143693351837183
 173    -0.0046287731273799
 174     0.0092696058488292
 175     0.0100217457323956
 176    -0.0050626124738142
 177     0.0003916811524514
 178     0.0017437009880352
 179     0.0001314534270880
 180     0.0022594636777624
 181     0.0095452334545214
 182    -0.0070312368143982
 183     0.0012478963014621
 184     0.0063661220510196
 Sym= 101A
 Ene= 0.074810
 Spin= Alpha
 Occup= 2.000000
  1     0.0000129493810014
  2     0.0000009004366089
  3     0.0000232158328179
  4     0.0000023784253330
  5     0.0000065299330293
  6     0.0000288498260202
  7     0.0000013038030806
  8    -0.0000036542580031
  9    -0.0000865575017349
 10    -0.0000270045047889
 11    -0.0000023065221797
 12    -0.0000030620115013
 13     0.0000005951793491
 14     0.0000017607474667
 15     0.0000130627549211
 16     0.0000000645498714
 17    -0.0000085140760540
 18    -0.0000632486574711
 19     0.0000098106645301
 20     0.0000017358977746
 21    -0.0000238870898537
 22    -0.0000029108475325
 23     0.0000015199839355
 24     0.0000083680304268
 25    -0.0000143734352304
 26     0.0000043216750927
 27    -0.0000700232621410
 28    -0.0000028520190084
 29     0.0000023880548075
 30    -0.0000099522377378
 31    -0.0000002867637865
 32    -0.0000821260623614
 33     0.0000168847896044
 34     0.0000166561684283
 35     0.0000092557722485
 36     0.0000590476081961
 37     0.0038967273238143
 38    -0.0000023054641018
 39     0.0000019404387255
 40     0.0002034383189524
 41     0.0037864343370277
 42    -0.0000013107475898
 43     0.0000025076237763
 44    -0.0027142926363806
 45     0.0004116848319481
 46    -0.0000128038305261
 47    -0.0000159084596352
 48    -0.0028827514391222
 49    -0.0021577042190286
 50    -0.0000032708652270
 51     0.0000025708043785
 52     0.0028307209411414
 53     0.0115530537607274
 54    -0.0036446339308549
 55     0.0087721013727719
 56    -0.0062802124765262
 57    -0.0014382264751522
 58     0.0048641384395929
 59     0.0002802655463962
 60     0.0038022528644673
 61     0.0115309160734891
 62     0.0036419535771283
 63    -0.0087655553012331
 64    -0.0062684917006560
 65    -0.0014321325702381
 66    -0.0048601195319795
 67    -0.0002781296741892
 68     0.0037969269961748
 69    -0.0039670024965207
 70    -0.3926569247312302
 71    -0.3019494842903703
 72    -0.0019584574828443
 73     0.0000780391116404
 74    -0.0005857910323125
 75    -0.0003703002404500
 76    -0.0002141689625361
 77    -0.0039910316715791
 78     0.3926994485135367
 79     0.3019243457155125
 80    -0.0018480138911358
 81     0.0000789890296075
 82     0.0005907554919832
 83     0.0003666464855664
 84    -0.0002148392980252
 85     0.0007824270165250
 86     0.4010707738931857
 87     0.3049250921130460
 88    -0.0009507539359129
 89    -0.0003425058349049
 90     0.0003143237304386
 91    -0.0002556892347974
 92     0.0004761515541667
 93     0.0008052122851292
 94    -0.4010374871707393
 95    -0.3048632359305901
 96    -0.0010872695386122
 97    -0.0003427448859224
 98    -0.0003110583998236
 99     0.0002531757391400
 100     0.0004763458217398
 101    -0.0013065095707825
 102    -0.0000376668694326
 103    -0.0000267908809981
 104    -0.0007884298405789
 105    -0.0001613183813800
 106    -0.0000036437634287
 107     0.0000026994072394
 108     0.0000724515623631
 109     0.0000471427449232
 110    -0.0000187143758231
 111    -0.0000080040675851
 112     0.0000805861061503
 113    -0.0000686357677409
 114    -0.0000010602741937
 115     0.0000007937767260
 116     0.0000728480525643
 117    -0.0000123580025929
 118     0.0000379666995367
 119     0.0000139921878873
 120    -0.0001418010913677
 121    -0.0000135644797142
 122     0.0000026346119942
 123    -0.0000018572603140
 124    -0.0000267528208768
 125    -0.0052643282481290
 126     0.0207388887840783
 127     0.0008184538421162
 128    -0.0011632438413658
 129    -0.0052574661788083
 130     0.0207153923950301
 131     0.0008160323099829
 132    -0.0011619936978277
 133     0.0042253143192576
 134     0.0001959602009987
 135     0.0003560478844516
 136    -0.0004638688239758
 137     0.0042322096640866
 138     0.0002002877762563
 139     0.0003558963730423
 140    -0.0004631400748739
 141    -0.0001339503911174
 142    -0.0000923277110068
 143     0.0002615513103810
 144     0.0000611895460949
 145    -0.0001494080073591
 146    -0.0000959039507174
 147     0.0002617487565769
 148     0.0000611539036890
 149    -0.0000004842776360
 150    -0.0000000614450465
 151     0.0000007082107114
 152    -0.0000000030676486
 153     0.0000236733072740
 154    -0.0000076436622381
 155     0.0000010876375002
 156    -0.0000008506321860
 157     0.0000253071552591
 158     0.0000044818095751
 159    -0.0000003220874107
 160    -0.0000078561104813
 161     0.0000005746770632
 162    -0.0000014889499494
 163    -0.0000061431414105
 164     0.0000034304799001
 165    -0.0000017747319608
 166    -0.0000250484354246
 167    -0.0000090201865064
 168     0.0000006596116794
 169     0.0000002044665978
 170     0.0000000366242490
 171    -0.0000011010925284
 172    -0.0000046990467840
 173    -0.0000000228937323
 174     0.0000047947106697
 175    -0.0000234841888856
 176     0.0000042701023357
 177    -0.0000003698303283
 178     0.0000078974606560
 179    -0.0000006021224259
 180    -0.0000011542147282
 181    -0.0000048211665205
 182    -0.0000042744012511
 183    -0.0000022588217102
 184    -0.0000239183927593
 Sym= 102A
 Ene= 0.082774
 Spin= Alpha
 Occup= 2.000000
  1    -0.0021298941724373
  2    -0.0006636127950509
  3     0.0015856149440697
  4    -0.0043278849909480
  5     0.0165290438455309
  6     0.0686703226403062
  7    -0.0492201656591953
  8    -0.0233921578452642
  9    -0.0698737535477246
 10     0.0003705067315474
 11    -0.0035965142925218
 12    -0.0157593538754491
 13     0.0033104639344020
 14    -0.0103034559985606
 15    -0.0409475324641677
 16     0.0017463601756894
 17    -0.0331162854451995
 18     0.0438627545754350
 19    -0.0161358224589904
 20     0.0041962434328003
 21    -0.0087582559978566
 22     0.0012356167461963
 23    -0.0064489812438309
 24    -0.0248011540681208
 25    -0.0101981990669579
 26     0.0146961261399679
 27     0.0274635017688014
 28    -0.0246265367110354
 29     0.0003274717430308
 30    -0.0345902298014038
 31     0.0013434144532463
 32     0.0004362839293178
 33    -0.0000113570856967
 34     0.0852613554364315
 35     0.0663330958977529
 36    -0.0004017756956020
 37    -0.0000130213938092
 38     0.2502395651039023
 39    -0.0006558927972446
 40    -0.0000357570823717
 41     0.0000004977419616
 42     0.2066045695519588
 43     0.0038577176532192
 44    -0.0000350372324559
 45     0.0000114986942918
 46    -0.1783544032285814
 47    -0.1340105550708747
 48     0.0000118876770284
 49     0.0000045743501227
 50     0.2797638608590651
 51    -0.2166735082762763
 52     0.0000134311742112
 53     0.0110056944058214
 54    -0.0375443490711294
 55    -0.0108156901605533
 56    -0.0181303796480299
 57     0.0188618785052052
 58    -0.2059305916943165
 59    -0.0251135413853551
 60     0.0211351661529215
 61    -0.0109993831877743
 62    -0.0375548213194785
 63    -0.0108082824159130
 64     0.0181402420312945
 65    -0.0188636651887627
 66    -0.2059388576255906
 67    -0.0251095318480365
 68    -0.0210485192284715
 69     0.0189384093383723
 70     0.0352835877817005
 71     0.0084630442005305
 72     0.0116175356543006
 73    -0.0120963968061288
 74    -0.1534515469352508
 75     0.1396725045648954
 76     0.0086327320640689
 77    -0.0189370969348280
 78     0.0352606287456114
 79     0.0084386922384321
 80    -0.0116287831063610
 81     0.0121028982262345
 82    -0.1534504649902963
 83     0.1396662408553274
 84    -0.0086658599573689
 85    -0.0046382419179915
 86     0.1386966601229036
 87     0.1070604128912662
 88    -0.0056550803789336
 89     0.0035848790284907
 90    -0.1573547140752690
 91     0.1176659771130473
 92    -0.0034505590425210
 93     0.0046461379477431
 94     0.1387301723928857
 95     0.1070795803948354
 96     0.0057144257360089
 97    -0.0035806484852631
 98    -0.1573773622477187
 99     0.1176812774297992
 100     0.0033854179329351
 101     0.0000111497091977
 102    -0.1762081442307420
 103    -0.1352533311482872
 104    -0.0000554786172242
 105     0.0000150404844454
 106     0.2822435079381833
 107    -0.2095075329352287
 108     0.0000878290471486
 109     0.0000385328648023
 110    -0.0921747471138006
 111    -0.0704357895272135
 112    -0.0000609241485393
 113     0.0000446659825909
 114     0.1055570359699135
 115    -0.0813668181081823
 116     0.0000749665367608
 117     0.0000874686680767
 118     0.1507785464294065
 119     0.1126097834918487
 120    -0.0000258735282379
 121     0.0001943937424170
 122    -0.2100867159275325
 123     0.1589417056555123
 124     0.0000322671508282
 125     0.0063029533804004
 126     0.0061313904474947
 127     0.0028574165445030
 128     0.0038586016408393
 129    -0.0062985889817460
 130    -0.0061288798512967
 131    -0.0028528309159221
 132    -0.0038620126182611
 133    -0.0032925599387770
 134     0.0056741412293909
 135     0.0008206863628769
 136    -0.0004240130998182
 137     0.0032786885458748
 138    -0.0056786074912423
 139    -0.0008338755450524
 140     0.0004170885405003
 141     0.0058808179198077
 142    -0.0002211666411831
 143    -0.0062117789981055
 144    -0.0006954161174393
 145    -0.0058909981959241
 146     0.0002078614087392
 147     0.0062006531558931
 148     0.0006788209251213
 149     0.0359629998493587
 150     0.0003911507610809
 151    -0.0497435595262282
 152    -0.0017123482931353
 153     0.0004883165633607
 154    -0.0001224215166951
 155    -0.1088334492259547
 156     0.0853912803192587
 157     0.0004632579283251
 158     0.0025979653399213
 159    -0.0007754599647650
 160     0.0025359067183835
 161     0.0056009401384566
 162     0.0215832083876149
 163     0.0881635626979158
 164     0.0637422004105069
 165    -0.0300868275120965
 166     0.0900867480080822
 167    -0.0007024676694852
 168    -0.0046386590994477
 169    -0.0202702053439218
 170    -0.0043952576599372
 171    -0.0134780895359844
 172    -0.0528243180869482
 173    -0.0025468381812777
 174    -0.0432890151536396
 175    -0.0567620803801172
 176     0.0209416834626519
 177     0.0055561146799748
 178    -0.0112118990578287
 179    -0.0017587606140762
 180    -0.0083059292644699
 181    -0.0315992338950284
 182     0.0129059061664314
 183     0.0193692800887053
 184    -0.0348583201885423
 Sym= 103A
 Ene= 0.100763
 Spin= Alpha
 Occup= 2.000000
  1     0.0001150715374217
  2    -0.0000324596643003
  3     0.0001597141305459
  4     0.0000207442875276
  5     0.0000051233180518
  6    -0.0001970398583650
  7     0.0005752990505783
  8    -0.0000049441449899
  9    -0.0006829832790976
 10    -0.0001909712325007
 11     0.0000771071675531
 12    -0.0000114365263980
 13     0.0000056608306068
 14     0.0000007470726547
 15     0.0000328010381964
 16     0.0000279937576067
 17    -0.0001528786310167
 18    -0.0007410340232136
 19     0.0001068270534404
 20    -0.0000223153627449
 21    -0.0001682458004766
 22    -0.0000280502484734
 23    -0.0000076530357968
 24    -0.0002759259344370
 25    -0.0006259827951059
 26     0.0000582178305224
 27    -0.0006004759632536
 28    -0.0000458322519738
 29     0.0000465312104954
 30    -0.0000044952949662
 31    -0.0000020525607612
 32    -0.0005273789821859
 33     0.0006376692660494
 34     0.0000661980378733
 35    -0.0001209214995067
 36     0.0008301539121260
 37    -0.0000076803801337
 38     0.0000751042548303
 39     0.0000013320650095
 40    -0.0015279238281432
 41     0.0004257663627116
 42     0.0000125962473007
 43     0.0000000665458720
 44     0.0022661565414137
 45    -0.0045428879249036
 46    -0.0000410454351981
 47    -0.0000306041747831
 48    -0.0000722865390884
 49    -0.0039258854491264
 50     0.0000188576641501
 51    -0.0000133678308630
 52    -0.0002697440597470
 53     0.0021947665612987
 54    -0.4926463380609729
 55     0.0019881130769090
 56    -0.0001159768172098
 57     0.0033457482189631
 58     0.5049971895901748
 59     0.0027179802583451
 60     0.0005566770979155
 61     0.0021924631183313
 62     0.4926003352063605
 63    -0.0019819267676634
 64    -0.0002981668531585
 65     0.0033405392876316
 66    -0.5050271350896962
 67    -0.0027276994361711
 68     0.0007396961366759
 69    -0.0137062150505281
 70     0.0094858207742876
 71    -0.0042809103796010
 72    -0.0059711803497827
 73    -0.0121018728791072
 74     0.0000253933217432
 75    -0.0112887976613512
 76     0.0063249143819931
 77    -0.0137212342767752
 78    -0.0094567156592544
 79     0.0042859919606416
 80    -0.0059667643491436
 81    -0.0121095957253433
 82    -0.0000599942080243
 83     0.0113188918313695
 84     0.0063194680781937
 85     0.0009107599451862
 86    -0.0027942021793888
 87    -0.0030714732111154
 88     0.0035808119215031
 89     0.0013981919770763
 90    -0.0066614056573908
 91     0.0046112633085447
 92    -0.0037904093772733
 93     0.0009412305345716
 94     0.0028326976383641
 95     0.0031246070737076
 96     0.0035680130235698
 97     0.0014146540084004
 98     0.0066644962713940
 99    -0.0045991418924478
 100    -0.0037798550453755
 101    -0.0039014531331502
 102    -0.0000404309103186
 103    -0.0000315317316239
 104    -0.0024815795764940
 105    -0.0039161078314743
 106     0.0000201378271558
 107    -0.0000155661672842
 108     0.0026846363354776
 109     0.0023809455184024
 110    -0.0000567494547368
 111     0.0000722777825675
 112     0.0022614085613818
 113     0.0023739643054001
 114     0.0000183247810423
 115     0.0000516958844877
 116    -0.0023358475613072
 117    -0.0003208770882926
 118     0.0000558792670085
 119    -0.0000179708028341
 120    -0.0011075349637623
 121    -0.0002862120854127
 122    -0.0000215419589378
 123    -0.0000106935217222
 124     0.0011625832044481
 125    -0.0039223345438916
 126    -0.0012096765039513
 127    -0.0042130014053837
 128     0.0000876324347379
 129    -0.0039228604396679
 130    -0.0012143844624925
 131    -0.0042120984327611
 132     0.0000880623687158
 133     0.0098712391879021
 134    -0.0277257652014968
 135     0.0062018160266236
 136    -0.0222332056812480
 137     0.0098790636940024
 138    -0.0277229248788706
 139     0.0062079063661005
 140    -0.0222372439815340
 141    -0.0009987157681423
 142     0.0010545980713651
 143    -0.0009282606301733
 144     0.0011309416927718
 145    -0.0010085290328010
 146     0.0010686399922418
 147    -0.0009311296639952
 148     0.0011375384476394
 149     0.0000409871183680
 150     0.0000424280701338
 151    -0.0000023378448300
 152     0.0000011718865015
 153    -0.0005822975118781
 154     0.0006718689429745
 155    -0.0000208546472041
 156    -0.0000862416735225
 157    -0.0008790844426882
 158    -0.0001142658967419
 159    -0.0000261338988183
 160     0.0001756094741027
 161    -0.0000181909969032
 162     0.0000021291131289
 163    -0.0002044568119378
 164    -0.0005642063659464
 165     0.0000408933751091
 166     0.0007014510228618
 167     0.0002047005885628
 168     0.0000681848065102
 169    -0.0000035098585391
 170    -0.0000020278960485
 171    -0.0000017374778208
 172     0.0000016028351252
 173    -0.0000104534060925
 174    -0.0002016217496825
 175     0.0007550144991010
 176    -0.0001115545106291
 177    -0.0000224266489209
 178    -0.0001779250414261
 179     0.0000207222362989
 180    -0.0000019545018813
 181    -0.0002298884849686
 182     0.0005810935103548
 183     0.0000629649396335
 184     0.0006768676475323
 Sym= 104A
 Ene= 0.103107
 Spin= Alpha
 Occup= 2.000000
  1     0.0380471018290300
  2    -0.0318806779055213
  3    -0.0138208104168197
  4     0.0517758646363441
  5    -0.0027123180431746
  6    -0.1651132203478648
  7     0.3879587703852240
  8    -0.2246574971443478
  9     0.0568472872187285
 10     0.0092634974726196
 11     0.0854427209512997
 12    -0.0066667502803677
 13     0.0038718766466681
 14     0.0155041261487178
 15     0.2633310064720170
 16     0.0215196454401996
 17     0.3268796259991993
 18    -0.1934153088071064
 19     0.0334408854945207
 20    -0.0247779743325122
 21     0.0084976022677028
 22    -0.0569593703474814
 23    -0.0095585226189979
 24    -0.2144049874489148
 25    -0.4195672273308459
 26    -0.1806181262768298
 27     0.1061527071452219
 28    -0.0584267624984327
 29     0.0567813102916512
 30    -0.0003566665556206
 31    -0.0017413922939359
 32    -0.0061778210280559
 33     0.0097717912509260
 34     0.0389557837669948
 35    -0.2727105921635476
 36     0.0090369375047734
 37    -0.0000653364341212
 38    -0.0884783473980520
 39     0.0000465176301631
 40     0.0000999268029440
 41     0.0000113353771017
 42    -0.0868434605338551
 43    -0.0000480846462096
 44     0.0000391925709186
 45    -0.0000412022446027
 46    -0.0290962095036758
 47    -0.0198769008029200
 48     0.0000282578585049
 49     0.0000164507340202
 50     0.0485193903813336
 51    -0.0357532600500164
 52     0.0000043864792901
 53     0.0009501602227763
 54     0.0605242857278243
 55    -0.0028601767782376
 56    -0.0028825696235997
 57     0.0042238099816034
 58     0.0226809694546187
 59    -0.0028946181565801
 60     0.0035874807967033
 61    -0.0009755987065078
 62     0.0598650637848143
 63    -0.0028164352581773
 64     0.0028724667365967
 65    -0.0042344395734547
 66     0.0233350244008302
 67    -0.0029001605302632
 68    -0.0035763235448683
 69     0.0001753241135196
 70     0.0383227620368138
 71     0.0356701209956986
 72    -0.0101008346036072
 73     0.0055241924547810
 74    -0.0024652328103091
 75    -0.0044980545260921
 76    -0.0051308475629340
 77    -0.0006339718394253
 78     0.0383155672771808
 79     0.0356891719012227
 80     0.0107616923673278
 81    -0.0053663075054572
 82    -0.0024859397858102
 83    -0.0045058281110802
 84     0.0053324746587021
 85    -0.0231728576396408
 86    -0.0343142256378092
 87    -0.0047170773942970
 88     0.0157916690494829
 89     0.0020345891223922
 90    -0.0470563107706886
 91     0.0329596419767992
 92     0.0042604598233975
 93     0.0235335061110661
 94    -0.0346014549263555
 95    -0.0043446586054216
 96    -0.0159729556928637
 97    -0.0021408978585027
 98    -0.0471368681018800
 99     0.0328423070257525
 100    -0.0043590915348914
 101    -0.0013716102550588
 102    -0.0150509158729379
 103    -0.0092128620460425
 104     0.0018168783052422
 105     0.0004038046941048
 106     0.0390399340849676
 107    -0.0295588622163948
 108     0.0005711230064918
 109     0.0010052768366709
 110    -0.0308049968090473
 111     0.1778170866394483
 112     0.0000325606069909
 113    -0.0002776660269518
 114     0.0396537796401220
 115    -0.0618400881635854
 116    -0.0000392040776976
 117    -0.0100463791406835
 118     0.0269446722076570
 119    -0.0871702597700849
 120     0.0072678832873028
 121     0.0030755769290710
 122    -0.0414549916887097
 123     0.0436438611400657
 124     0.0022652482630886
 125     0.0014728165799440
 126     0.0005759356954773
 127     0.0000528282591005
 128     0.0019285146603995
 129    -0.0014380878292860
 130    -0.0006304213480212
 131    -0.0000451153213257
 132    -0.0019070305802521
 133    -0.0072092580818335
 134    -0.0010228378579516
 135     0.0001273059352404
 136     0.0017588347963074
 137     0.0075155025957912
 138     0.0010876226341743
 139    -0.0002385405721417
 140    -0.0017409443617407
 141     0.0030272249696063
 142    -0.0124130568833160
 143     0.0013682433562703
 144     0.0014661959024085
 145    -0.0026898311645036
 146     0.0128442134194440
 147    -0.0014762163829130
 148    -0.0015877346899920
 149    -0.0151792045293815
 150    -0.0179043154157179
 151    -0.0022202659719963
 152     0.0022918072580018
 153     0.0018473912001227
 154    -0.0028890256422028
 155    -0.0489035149322384
 156     0.0884468402579474
 157     0.0025981673145986
 158     0.0086523888414489
 159     0.0044637423229461
 160     0.0005920726985599
 161     0.0203870866276738
 162     0.0066180483493428
 163     0.0902999230794978
 164     0.1453110724067279
 165     0.0349510534211411
 166     0.0581169253837469
 167     0.0029050481975208
 168    -0.0265990882000333
 169    -0.0084006723347140
 170    -0.0049207647326159
 171    -0.0054530929125815
 172    -0.0835077151098194
 173    -0.0271099836771152
 174    -0.1034500556794707
 175    -0.0628564077691889
 176     0.0145612360106110
 177     0.0133901340728066
 178    -0.0071139766164769
 179    -0.0138633138111402
 180    -0.0021106208557603
 181     0.0280906676728360
 182    -0.1053823399301009
 183     0.0906576753106865
 184    -0.0038682629087913
 Sym= 105A
 Ene= 0.104330
 Spin= Alpha
 Occup= 2.000000
  1    -0.0149810960399115
  2     0.0211408301220232
  3     0.0101145691007574
  4    -0.0091540785993361
  5    -0.0092712509431659
  6    -0.0177616868323424
  7    -0.0868352056332899
  8     0.1471777504068113
  9     0.0556946562921325
 10    -0.0024384293522718
 11    -0.0287117258335118
 12     0.0195992846220014
 13    -0.0128130260638278
 14    -0.0014611836113856
 15    -0.0775618184046640
 16    -0.0759391728665112
 17    -0.1026822303938112
 18     0.0458246670139806
 19    -0.0017351187153526
 20    -0.0025848459225282
 21     0.0060325875819546
 22     0.0267069812093444
 23     0.0096452608555573
 24     0.1365833890163008
 25     0.1855410601719575
 26    -0.0006388511022214
 27    -0.0909631772672528
 28     0.0241906126461166
 29    -0.0209871196505476
 30    -0.0029653677840292
 31     0.0069390193280059
 32     0.0020702491288572
 33    -0.0036019533588753
 34    -0.1156065022057935
 35     0.0661520478293154
 36    -0.0031318708496815
 37     0.0000361482628496
 38    -0.1142153166369844
 39    -0.0001116744003064
 40    -0.0000070249504834
 41     0.0000791973544599
 42    -0.1127388182764018
 43    -0.0002787323597294
 44     0.0001105143417766
 45     0.0000084841545910
 46     0.0230928946940840
 47     0.0173385104879284
 48    -0.0000149701146760
 49     0.0000362697356526
 50     0.0077182987053614
 51    -0.0056039162592511
 52     0.0000203919089624
 53    -0.0039430138819547
 54     0.0539163900752514
 55     0.0004920257824809
 56     0.0017151581693456
 57     0.0020207503322418
 58     0.0543064762468414
 59     0.0002619331198766
 60    -0.0004618725752962
 61     0.0039713267116321
 62     0.0550064358030334
 63     0.0004699389006339
 64    -0.0017209860512798
 65    -0.0019806603666275
 66     0.0531817821615053
 67     0.0002096300535104
 68     0.0004459319844355
 69    -0.0116079858269764
 70     0.0113309380381825
 71     0.0188872540408054
 72    -0.0016031131588341
 73     0.0040728439095853
 74     0.0230656070830576
 75    -0.0257772855999893
 76    -0.0093840448606031
 77     0.0117543972115818
 78     0.0113325189841436
 79     0.0188977132192300
 80     0.0013681025647796
 81    -0.0035849564804853
 82     0.0230311504893330
 83    -0.0257532974495542
 84     0.0101378075028248
 85     0.0149195724848879
 86    -0.0359816071569649
 87    -0.0390576425455051
 88    -0.0047640470878734
 89     0.0134672841808344
 90    -0.0372160965707488
 91     0.0143284984280417
 92     0.0121472875563407
 93    -0.0150517053457735
 94    -0.0358860925849751
 95    -0.0391990871842410
 96     0.0048166692416213
 97    -0.0138479011778041
 98    -0.0374898370895424
 99     0.0138992451575384
 100    -0.0124675273085445
 101     0.0004967745777237
 102     0.0350526098483102
 103     0.0270645674222896
 104    -0.0006564059897567
 105     0.0014270125282167
 106    -0.0011207434899558
 107     0.0026333077290992
 108     0.0020093300130923
 109    -0.0003859714210799
 110     0.0886488792514598
 111    -0.0356207693947039
 112     0.0000181557381762
 113    -0.0010481402356335
 114    -0.0016752870396360
 115    -0.1336596398028333
 116    -0.0002296605981105
 117     0.0036445092837520
 118    -0.0703036573237264
 119     0.0032806509080728
 120    -0.0026492584221113
 121     0.0108628604365098
 122     0.0016496758462656
 123     0.0536824216686847
 124     0.0080745075960060
 125     0.0012372126961507
 126    -0.0027760382422550
 127    -0.0012630505590385
 128     0.0007640325662871
 129    -0.0012680949646483
 130     0.0027866194162594
 131     0.0012171707769255
 132    -0.0007073574765182
 133     0.0048518232394424
 134    -0.0024643103522526
 135     0.0039377986504008
 136     0.0018120459601659
 137    -0.0049451741542341
 138     0.0023933001686200
 139    -0.0042821308922862
 140    -0.0018975933826463
 141    -0.0055833505600116
 142     0.0065184491161360
 143    -0.0002899420861716
 144     0.0064823407369162
 145     0.0054587107990697
 146    -0.0066682414302772
 147    -0.0000962322691448
 148    -0.0068936270010770
 149    -0.0667763343679681
 150    -0.0647506872264336
 151    -0.0000444907072675
 152    -0.0000550678759252
 153     0.0061356967714434
 154    -0.0103312022805170
 155     0.0025928237378249
 156     0.2150221679037042
 157     0.0088542868932774
 158     0.0274572177304059
 159     0.0288760512508915
 160     0.0076155561143570
 161     0.0551969048244387
 162     0.0014584874027241
 163     0.1805576051115087
 164     0.4130633326348028
 165     0.2233243895574249
 166     0.0584261328667480
 167     0.0077300475589320
 168    -0.0875889280064134
 169     0.0004439663603977
 170     0.0002326018613795
 171    -0.0066023042493344
 172    -0.2422373085024452
 173     0.0013590929199723
 174    -0.3187833259193451
 175    -0.1496632044199413
 176     0.0271501674420011
 177     0.0283170671159145
 178    -0.0072421767270876
 179    -0.0554425491038495
 180     0.0019552367144839
 181     0.1831064077002579
 182    -0.4150329085016147
 183     0.2209935371239925
 184     0.0617427776647942
 Sym= 106A
 Ene= 0.107027
 Spin= Alpha
 Occup= 2.000000
  1     0.0130323923892040
  2    -0.0360587214307386
  3    -0.0183309654718361
  4    -0.0271794797595593
  5     0.0155247178023486
  6     0.1987151616398790
  7    -0.1264752298101195
  8    -0.2259894398753661
  9    -0.1578723552705903
 10    -0.0000052597096020
 11     0.0000413941790043
 12    -0.0410200869799136
 13     0.0378777496927025
 14    -0.0000016866658480
 15    -0.0000389295589413
 16     0.2577110209553592
 17    -0.0000142745397049
 18    -0.0000350698816252
 19    -0.0130239362227556
 20     0.0360216126433248
 21    -0.0183461938915963
 22    -0.0271981819992695
 23    -0.0155075660706352
 24    -0.1988932352524995
 25    -0.1269108663361372
 26     0.2258984437367027
 27     0.1578260018521026
 28    -0.0000172065206756
 29     0.0000219001760776
 30     0.0323342930878595
 31    -0.0289981691646195
 32    -0.0000179192994421
 33     0.0000031286539706
 34     0.2500386251358127
 35     0.0000109493925748
 36     0.0000176856684747
 37     0.0000001053102725
 38     0.1774155979208042
 39     0.0003412360626875
 40    -0.0000318998915154
 41     0.0000391780441382
 42     0.1732336347427083
 43     0.0004404607254112
 44     0.0000181560791393
 45     0.0000007687872333
 46     0.0249365868917901
 47     0.0185922117409696
 48     0.0000040455946178
 49     0.0000084108876401
 50    -0.0911503546323143
 51     0.0656642140313428
 52     0.0000143992519207
 53     0.0031093040157372
 54    -0.1126660479682082
 55     0.0041120229349306
 56     0.0030002993355950
 57    -0.0097955678960783
 58    -0.0523911080275773
 59     0.0053038560757196
 60    -0.0056540678265189
 61    -0.0030946542236857
 62    -0.1125461766912805
 63     0.0041073057069830
 64    -0.0029447593418627
 65     0.0097984434604081
 66    -0.0525363636868116
 67     0.0052836668987298
 68     0.0056730075322893
 69     0.0165194417859117
 70    -0.0554826761022216
 71    -0.0590301268514821
 72     0.0031130064196226
 73    -0.0161061846122128
 74     0.0047878052735647
 75     0.0110448379242467
 76     0.0047140046227114
 77    -0.0165237349694039
 78    -0.0555141925110494
 79    -0.0590487975353050
 80    -0.0031382220887894
 81     0.0163091440459626
 82     0.0048739725226482
 83     0.0109748087411857
 84    -0.0044346730881499
 85    -0.0192000705130031
 86     0.0489455368232368
 87     0.0518483489463222
 88     0.0052610297586130
 89     0.0159154686770187
 90     0.0798472294625436
 91    -0.0740380625065382
 92     0.0040041954235725
 93     0.0192004764958472
 94     0.0489735151884795
 95     0.0518696685757733
 96    -0.0052398103885830
 97    -0.0160750188121925
 98     0.0796384980158445
 99    -0.0741316411859492
 100    -0.0040883577926930
 101    -0.0000005212247468
 102    -0.0039708630060791
 103    -0.0041666033568734
 104     0.0000003590053435
 105     0.0005619226004445
 106    -0.0739195831713592
 107     0.0597320392266869
 108     0.0007687455925093
 109    -0.0000023295330406
 110    -0.1678586039575014
 111    -0.0004854844025316
 112    -0.0000148399730884
 113    -0.0004611093877676
 114    -0.1512259201397229
 115     0.0054261337902958
 116    -0.0001555756996675
 117    -0.0000110883347748
 118     0.0946000374615802
 119    -0.0000610505193133
 120     0.0000163017002584
 121     0.0041841396916878
 122     0.1139066931249837
 123    -0.0384499545574882
 124     0.0031547386052617
 125    -0.0040808743583406
 126     0.0034506299085901
 127     0.0013036240595895
 128    -0.0049836505169428
 129     0.0040699419366132
 130    -0.0034490062675693
 131    -0.0013191762056587
 132     0.0049957980728984
 133    -0.0057204030250022
 134     0.0031900272461431
 135     0.0060560649341158
 136    -0.0036080148124304
 137     0.0057239624356043
 138    -0.0031957942729151
 139    -0.0061900482254033
 140     0.0035891862473171
 141     0.0079214678334210
 142    -0.0082331003771080
 143    -0.0067849906663574
 144     0.0054217323940872
 145    -0.0079212141249876
 146     0.0082329142846194
 147     0.0066372641426953
 148    -0.0055737998280066
 149    -0.0308323039776825
 150    -0.0254362849248115
 151    -0.0202658083951427
 152    -0.0248638115595170
 153     0.0021059942080727
 154    -0.0040720776977409
 155     0.2128666299790616
 156     0.0138312675335779
 157     0.0031968968795320
 158     0.0121498871663886
 159     0.0392199955196221
 160     0.0140287515658190
 161    -0.0057415812510404
 162    -0.0171645869425753
 163    -0.1175672978692516
 164     0.0284732999246350
 165     0.2726164607807663
 166    -0.1374957344851441
 167     0.0007371050761874
 168    -0.0284126152727775
 169     0.0350764011633588
 170     0.0320501156274742
 171     0.0058751131542401
 172    -0.0548821855985742
 173     0.2163650655642051
 174    -0.0872203551878390
 175    -0.0052797394286886
 176    -0.0105741623791833
 177    -0.0217448236508792
 178     0.0166086292694941
 179    -0.0398340733998221
 180     0.0101508137540665
 181     0.2180340374299146
 182    -0.2433389785659841
 183    -0.1074481924589457
 184     0.1319499108111978
 Sym= 107A
 Ene= 0.109909
 Spin= Alpha
 Occup= 2.000000
  1    -0.0139376378918153
  2     0.0332078626853388
  3     0.0161548432704129
  4     0.0438372992870631
  5     0.0054389867786373
  6    -0.2125984270516505
  7     0.2282897647642271
  8     0.1748062196114708
  9     0.0630267109635599
 10    -0.0019073993406267
 11     0.0234429499934315
 12     0.0223073424093098
 13    -0.0406862313380979
 14    -0.0126968355958004
 15     0.0223806358903597
 16    -0.3196497144516449
 17     0.0564858516377023
 18     0.0423198484855506
 19    -0.0016660859204367
 20    -0.0466239651172579
 21     0.0070772854652556
 22     0.0176247957769538
 23     0.0081798512775361
 24     0.1449676142810567
 25    -0.0016818222669632
 26    -0.3320595948211547
 27    -0.1159582559764581
 28    -0.0283943975876429
 29     0.0253462390916224
 30    -0.0550806532955691
 31     0.0429175530485093
 32    -0.0017451830754155
 33     0.0045779134820596
 34    -0.1503115367030375
 35     0.0461492056029041
 36     0.0031258793675624
 37    -0.0000377603538725
 38     0.0965998992154219
 39    -0.0006787574287994
 40     0.0000219430131566
 41    -0.0000122105328549
 42     0.0951039551874622
 43    -0.0006519218964334
 44    -0.0000242405598356
 45    -0.0000144570863472
 46    -0.0738574067799664
 47    -0.0575669158883378
 48     0.0000201643195578
 49    -0.0000065761048224
 50     0.0321383697693441
 51    -0.0262373685422973
 52    -0.0000002477831488
 53     0.0063844046621554
 54    -0.0240833625654779
 55    -0.0057479188651097
 56    -0.0047766643077450
 57    -0.0002580161415829
 58    -0.0656120362770292
 59    -0.0039150194105999
 60     0.0032662169774910
 61    -0.0063951148551769
 62    -0.0242555334837725
 63    -0.0057258503968328
 64     0.0047889017419609
 65     0.0002406879940828
 66    -0.0654487704975593
 67    -0.0039046630911354
 68    -0.0032351953738965
 69     0.0044028508049651
 70     0.0259485843389514
 71     0.0135538820993839
 72     0.0082365060983322
 73    -0.0090438522743259
 74    -0.0382663995386401
 75     0.0388201371224863
 76     0.0009327954649401
 77    -0.0046150208879031
 78     0.0259426419680554
 79     0.0135665453181540
 80    -0.0079513008194928
 81     0.0089783053828788
 82    -0.0381777172282047
 83     0.0387534629935627
 84    -0.0010459412376367
 85     0.0114470859305464
 86     0.0467671931703529
 87     0.0242966639957349
 88    -0.0096470974258191
 89     0.0124362938851593
 90     0.0027562841835407
 91    -0.0129697769432011
 92     0.0048227043652798
 93    -0.0112797416096248
 94     0.0466321905500362
 95     0.0244645975878340
 96     0.0095862338554310
 97    -0.0123884070157418
 98     0.0027119112168412
 99    -0.0128419915760951
 100    -0.0047818992140733
 101    -0.0006151103156731
 102    -0.0779755661992568
 103    -0.0606321720848294
 104     0.0007844051093360
 105    -0.0001972067304328
 106     0.0397418726983532
 107    -0.0270751304446192
 108    -0.0002646710998019
 109     0.0005728769451311
 110     0.0710735637733441
 111    -0.0521202669456261
 112    -0.0000808203922491
 113     0.0001739913437493
 114    -0.0987448796874137
 115    -0.0167601875227817
 116     0.0000369690308584
 117    -0.0043440624538719
 118     0.0106547426327344
 119     0.0684475584480045
 120     0.0031655122497165
 121    -0.0014667539176763
 122     0.0193458078119246
 123     0.0263421487059559
 124    -0.0010981150448452
 125     0.0001578019990313
 126     0.0014585042503440
 127     0.0028006969140772
 128    -0.0013411145323188
 129    -0.0001401081918641
 130    -0.0014807826231692
 131    -0.0027873610467692
 132     0.0013272418802908
 133     0.0026587474243544
 134     0.0025912244116083
 135     0.0039678559224516
 136    -0.0011461506828899
 137    -0.0025228095576892
 138    -0.0025721930200984
 139    -0.0039223155831677
 140     0.0011572605876235
 141    -0.0004176501483547
 142     0.0068815508589725
 143    -0.0045353286306652
 144     0.0045609232640841
 145     0.0005720319337653
 146    -0.0067174591730133
 147     0.0045911933160989
 148    -0.0045121090494385
 149     0.0111757582960116
 150     0.0096446696625324
 151    -0.0571200424322548
 152    -0.0493389934434111
 153    -0.0005595422621559
 154     0.0014985325455981
 155     0.1755922295532192
 156     0.0155453285940935
 157    -0.0009796608898129
 158     0.0101549174463579
 159     0.0428544196710153
 160     0.0149280104401756
 161    -0.0397484191127770
 162     0.0000217664872185
 163    -0.2162439877424593
 164    -0.1718851573440038
 165     0.2566531941294846
 166    -0.0964450315940014
 167     0.0005601591948987
 168     0.0087216792726932
 169     0.0263175410906304
 170     0.0461515404272267
 171    -0.0045846780490642
 172     0.0099016343729894
 173     0.3601590349037940
 174     0.0225857639433332
 175    -0.0147035731831570
 176    -0.0047482810924582
 177    -0.0477659207133177
 178     0.0117751567205453
 179    -0.0296599885361949
 180     0.0048518673290257
 181     0.1913366001733560
 182    -0.0871184866880717
 183    -0.3159575016213757
 184     0.1143891664421114
 Sym= 108A
 Ene= 0.115018
 Spin= Alpha
 Occup= 2.000000
  1    -0.0224367964000607
  2     0.0129036085402089
  3     0.0076266372029270
  4     0.0285509096857723
  5     0.0295433987310827
  6    -0.0799555632356706
  7     0.1750420562965274
  8     0.0235176105500787
  9    -0.1310235098116577
 10    -0.0091457452864257
 11     0.0273735912217261
 12    -0.0118808023098016
 13    -0.0192120556272353
 14    -0.0295669143911283
 15    -0.0226309674613412
 16    -0.1945562918400880
 17     0.0301493682898479
 18     0.1514196045755446
 19    -0.0312639536553563
 20    -0.0270714636637864
 21    -0.0160297245393749
 22     0.0033469566799845
 23     0.0013845870601942
 24     0.0247647867599339
 25    -0.1099981601744036
 26    -0.2402760941446188
 27    -0.0379763321756445
 28    -0.0267890787512409
 29     0.0401556653529535
 30    -0.0331582345614771
 31     0.0335033601002472
 32    -0.0024718254823842
 33     0.0085567095173559
 34     0.0508413656902958
 35     0.1720611822282007
 36     0.0050877979325585
 37    -0.0000598292445973
 38     0.2556769391682738
 39     0.0007269756564878
 40     0.0000197045250981
 41     0.0000532656868900
 42     0.2445987505167130
 43     0.0003639635223630
 44     0.0000366430262806
 45    -0.0000326045803125
 46    -0.0132139889541443
 47    -0.0134532796394078
 48     0.0000378703712171
 49     0.0000184517208478
 50    -0.1375978542657388
 51     0.1024517006062973
 52     0.0000243643643292
 53     0.0077511675471743
 54    -0.1488332893007253
 55     0.0008922615019647
 56     0.0019779661289632
 57    -0.0150265776614717
 58    -0.0781706442245646
 59     0.0090734470425481
 60    -0.0072073475928531
 61    -0.0077492652309004
 62    -0.1488939356629398
 63     0.0009217555419739
 64    -0.0018875530582498
 65     0.0149979589194264
 66    -0.0781598721998361
 67     0.0090585916247854
 68     0.0072414753995462
 69     0.0157339666558550
 70    -0.0481852867385201
 71    -0.0579333190608258
 72     0.0140398632644380
 73    -0.0166171232208597
 74     0.0157214939398556
 75     0.0063332139589852
 76     0.0138449794485084
 77    -0.0161333468851023
 78    -0.0482334555618051
 79    -0.0579210643680347
 80    -0.0135511488269091
 81     0.0169686410966146
 82     0.0164705435926667
 83     0.0057391323027427
 84    -0.0133855831219279
 85     0.0062489130960556
 86     0.0954957697292562
 87     0.0638097419200873
 88    -0.0114611530611074
 89    -0.0023459875096466
 90     0.1249061846347495
 91    -0.0898992515815800
 92    -0.0098483714084258
 93    -0.0059376673778015
 94     0.0952691803555615
 95     0.0641426828605738
 96     0.0113520395602873
 97     0.0020822146194896
 98     0.1239172750448514
 99    -0.0895914585499506
 100     0.0097098160917980
 101    -0.0011339408238234
 102    -0.0600885938124979
 103    -0.0493437636855391
 104     0.0014489605082210
 105     0.0009514866397498
 106    -0.1271155435377751
 107     0.0973348285754252
 108     0.0012748040768980
 109     0.0011423214454373
 110    -0.0577901642493427
 111    -0.1306245547001639
 112    -0.0002140269820542
 113    -0.0009221212304976
 114    -0.0818370739393812
 115     0.1201077847439561
 116    -0.0003179620735963
 117    -0.0078216186225225
 118     0.0727653716245979
 119     0.1065470404583129
 120     0.0056951565989039
 121     0.0068428995489565
 122     0.1215048231917300
 123    -0.1178996433858905
 124     0.0051510515392656
 125    -0.0060806685373232
 126     0.0035136898816597
 127     0.0031662345089649
 128    -0.0056949666812477
 129     0.0060923628752131
 130    -0.0035558858978509
 131    -0.0031684343292671
 132     0.0056808302210038
 133     0.0017258966901567
 134     0.0050335232516979
 135     0.0006008653097103
 136    -0.0054173046614099
 137    -0.0014627006570899
 138    -0.0050114959666815
 139    -0.0008358213292717
 140     0.0053962846057950
 141     0.0043075905423029
 142     0.0058398293144568
 143    -0.0047905445299420
 144    -0.0030147809636705
 145    -0.0040171430726238
 146    -0.0055557672740719
 147     0.0045322840263920
 148     0.0027911088006070
 149    -0.0304801109580154
 150    -0.0381653246253056
 151     0.0559309176465902
 152     0.0540546119967039
 153     0.0023283394547005
 154    -0.0071525752441872
 155     0.0738443468781863
 156    -0.1541914785875912
 157     0.0043439024787824
 158    -0.0174248704801233
 159    -0.0253744403154627
 160    -0.0048718326321691
 161     0.0376688544319581
 162    -0.0359797043301559
 163     0.1118268612043686
 164     0.1858326447890063
 165    -0.1078715443234993
 166    -0.1442642139565896
 167    -0.0078562033134508
 168    -0.0257708767889963
 169     0.0176671270173102
 170    -0.0305600054927128
 171     0.0270728161848119
 172     0.0165624169785250
 173    -0.3082132432105355
 174    -0.0320111486476028
 175     0.1363875751564508
 176    -0.0308878347832649
 177     0.0384769265155940
 178     0.0167936641154338
 179     0.0132742825426918
 180     0.0075632697029471
 181    -0.0596686758180426
 182    -0.0796555777351287
 183     0.3114451614523888
 184    -0.0071873449407893
 Sym= 109A
 Ene= 0.116210
 Spin= Alpha
 Occup= 2.000000
  1     0.0000266080645311
  2    -0.0000106806373530
  3    -0.0000019592192665
  4    -0.0000287080463595
  5    -0.0000309082671641
  6     0.0000413203962533
  7    -0.0001386742496224
  8     0.0000219589856254
  9     0.0001268086109705
 10     0.0000047367770746
 11    -0.0000245942725929
 12     0.0000145773059795
 13     0.0000153476897779
 14     0.0000311685043766
 15     0.0000030749236732
 16     0.0001651360521404
 17    -0.0000644053080337
 18    -0.0001870411438342
 19     0.0000367303216797
 20     0.0000217316694587
 21     0.0000134959863474
 22     0.0000026270023395
 23    -0.0000020730476034
 24    -0.0000288412206344
 25     0.0000954969117835
 26     0.0002384646156351
 27     0.0000101308077035
 28     0.0000244262928281
 29    -0.0000422572593160
 30     0.0000259656726753
 31    -0.0000299410488818
 32    -0.0000098502175606
 33     0.0000207953562195
 34    -0.0000681643725955
 35    -0.0001851418305118
 36     0.0000250892577319
 37    -0.0042120624620836
 38    -0.0002314735506413
 39    -0.0000021609939191
 40    -0.0020826936766778
 41    -0.0044008190388798
 42    -0.0002200335254658
 43    -0.0000014585691263
 44     0.0000806113278221
 45     0.0023492689242239
 46    -0.0000034158739446
 47     0.0000002776334717
 48     0.0027422955154385
 49    -0.0011475021807771
 50     0.0001309173982574
 51    -0.0000924464421996
 52    -0.0023710065863175
 53     0.0012973089940792
 54    -0.0070652098134196
 55    -0.0007472600248012
 56     0.0035167060130204
 57    -0.0132642568424105
 58     0.0083464763440421
 59    -0.0090213339174245
 60    -0.0058419008978584
 61     0.0013063203273893
 62     0.0073507454903916
 63     0.0007421237073656
 64     0.0035156025857161
 65    -0.0132787382830887
 66    -0.0082262723190951
 67     0.0089999041866797
 68    -0.0058477116346287
 69    -0.0003522916491562
 70     0.0001924321175570
 71     0.0007508316427955
 72    -0.0002123085855499
 73     0.0030950795795198
 74    -0.3930742682633476
 75     0.3013562857007855
 76    -0.0014390507590641
 77    -0.0003252342653585
 78    -0.0000827292151721
 79    -0.0006285781329949
 80    -0.0001876933595287
 81     0.0030862887783835
 82     0.3930555411508963
 83    -0.3013396286535522
 84    -0.0013026896419583
 85     0.0004003832777455
 86    -0.0004354607077735
 87    -0.0002582817167856
 88     0.0005168117318562
 89    -0.0007345907763714
 90     0.4007023836199131
 91    -0.3045708125894955
 92    -0.0011026724253673
 93     0.0004137516503966
 94     0.0002600725136749
 95     0.0001421415880170
 96     0.0004954197323727
 97    -0.0007594231687345
 98    -0.4009100116782474
 99     0.3046916482803914
 100    -0.0012560094909175
 101     0.0000967560698932
 102     0.0000443631435689
 103     0.0000373655869986
 104     0.0000514508869456
 105     0.0010410083616153
 106     0.0000872492808467
 107    -0.0000714417723075
 108    -0.0005951887426755
 109     0.0001058510160652
 110     0.0000630220519377
 111     0.0001344885920032
 112     0.0000955188244248
 113     0.0000803942126696
 114     0.0000690969684648
 115    -0.0001024101292325
 116    -0.0000647999366543
 117    -0.0000044373417652
 118    -0.0000658492581279
 119    -0.0001021461797087
 120    -0.0000273442347447
 121     0.0000175400027597
 122    -0.0000807514230066
 123     0.0001003184350872
 124    -0.0000516469320502
 125    -0.0009655664429110
 126     0.0012338239534198
 127     0.0086233383731856
 128    -0.0259988255190184
 129    -0.0009755250156510
 130     0.0012394075999094
 131     0.0086217734103506
 132    -0.0259916824003785
 133    -0.0002836387767928
 134     0.0000954380569745
 135    -0.0040037219193883
 136    -0.0012512600537980
 137    -0.0002794293440075
 138     0.0001031096417438
 139    -0.0040103158766794
 140    -0.0012648043670839
 141    -0.0002683368376062
 142    -0.0000234870960007
 143     0.0001114106018067
 144     0.0002298332019037
 145    -0.0002614095949772
 146    -0.0000119244658578
 147     0.0001145237263482
 148     0.0002287437484077
 149     0.0000258122671126
 150     0.0000297752506410
 151    -0.0000307446462670
 152    -0.0000347095095174
 153     0.0000093244208285
 154     0.0000092022719982
 155    -0.0000776106621985
 156     0.0001306116654428
 157    -0.0000143735105990
 158     0.0000142163081099
 159     0.0000118630213576
 160     0.0000023610405768
 161    -0.0000221933801601
 162     0.0000289292628314
 163    -0.0000693848972548
 164    -0.0001455663383237
 165     0.0000470536216494
 166     0.0001265864544094
 167     0.0000059460236221
 168     0.0000227374703856
 169    -0.0000167078629724
 170     0.0000169916981038
 171    -0.0000219040394583
 172    -0.0000274184553200
 173     0.0001841742805966
 174     0.0000047422580674
 175    -0.0001140198504221
 176     0.0000257828316591
 177    -0.0000242902567147
 178    -0.0000156540227698
 179    -0.0000069636288189
 180    -0.0000036717008993
 181     0.0000082927925720
 182     0.0000979634902871
 183    -0.0001937896492946
 184    -0.0000078635398105
 Sym= 110A
 Ene= 0.118715
 Spin= Alpha
 Occup= 2.000000
  1    -0.0730130806545859
  2    -0.0392157904763832
  3     0.0440019474155631
  4    -0.0110899128392148
  5    -0.0082738286627643
  6    -0.0013460187121553
  7     0.1991261880748683
  8    -0.3627037985726666
  9     0.0060205714361763
 10    -0.0229089788361106
 11     0.0393922428014274
 12     0.0464809156338006
 13     0.0268971154119065
 14    -0.0565332911096305
 15    -0.0946687525580531
 16     0.3290269993802325
 17    -0.0108410080564441
 18     0.3339732422370949
 19    -0.0431725992662684
 20     0.0195052928598590
 21    -0.0029806675214033
 22    -0.0369472436659148
 23     0.0675828544901774
 24    -0.0710044940580759
 25    -0.2402935368532665
 26     0.0409166974599281
 27    -0.3775295396089586
 28    -0.0162386112130355
 29     0.0689554903088104
 30     0.0385908827373003
 31    -0.0658326309575830
 32    -0.0048071647764699
 33     0.0190852500263131
 34    -0.2325731667486923
 35     0.3744890973269708
 36     0.0107212953236709
 37    -0.0001222969726379
 38    -0.0616822153454226
 39    -0.0002797362253013
 40     0.0001502525090329
 41    -0.0000310332008256
 42    -0.0623283814543818
 43    -0.0003039227448699
 44    -0.0000032787577291
 45    -0.0000840443456576
 46     0.0307216637683376
 47     0.0212346177169199
 48     0.0000587370068082
 49    -0.0000046567585883
 50     0.0165062749241052
 51    -0.0121613194466289
 52    -0.0000097925353029
 53    -0.0055680249988735
 54     0.0276159521850085
 55     0.0011156959714242
 56     0.0021171753081879
 57     0.0031371035611555
 58     0.0287587815540324
 59    -0.0010283425440355
 60    -0.0002440501281445
 61     0.0055082166142862
 62     0.0273040548241239
 63     0.0011900549934912
 64    -0.0021101747485585
 65    -0.0031712768599368
 66     0.0290475003401204
 67    -0.0010101922202255
 68     0.0002566076781659
 69    -0.0172176955580396
 70    -0.0077687445705627
 71     0.0013490554471121
 72     0.0100195929507167
 73     0.0041657004865427
 74     0.0052233853029676
 75    -0.0089889666553649
 76    -0.0034486785286298
 77     0.0163338832982715
 78    -0.0078186536861807
 79     0.0014194315232213
 80    -0.0088731409912061
 81    -0.0042649808029553
 82     0.0052688932957632
 83    -0.0090233833389341
 84     0.0033093914369046
 85     0.0479034290280426
 86    -0.0028431427001177
 87    -0.0425308667067800
 88    -0.0238330960278435
 89     0.0005131906689579
 90    -0.0236525757500191
 91     0.0167541306830816
 92     0.0024107310189183
 93    -0.0471658243214532
 94    -0.0033857036510423
 95    -0.0418469378618671
 96     0.0234875983023095
 97    -0.0004327047711133
 98    -0.0236344356783698
 99     0.0168737330491661
 100    -0.0023634483905467
 101    -0.0025204654185975
 102     0.0379974385633642
 103     0.0236869672248470
 104     0.0032329749788070
 105    -0.0002871046769747
 106     0.0151077982574358
 107    -0.0118658980031607
 108    -0.0003897970275581
 109     0.0026190318699506
 110     0.1685471756584926
 111    -0.2321087840977722
 112    -0.0004509449055900
 113     0.0002883953434723
 114     0.0228411991155461
 115    -0.0312499323021392
 116     0.0000967356717739
 117    -0.0171214119036193
 118    -0.1296950476275528
 119     0.1287546188631218
 120     0.0123966273347483
 121    -0.0020522768340521
 122    -0.0212076986706514
 123     0.0226087522123973
 124    -0.0015332848322258
 125     0.0020593016403410
 126    -0.0046256542921049
 127    -0.0016089316351084
 128     0.0011423774499643
 129    -0.0019925772390948
 130     0.0045176285994861
 131     0.0016365035313818
 132    -0.0011491615271406
 133     0.0150586755477728
 134    -0.0022690971868336
 135    -0.0000572620940248
 136     0.0013085816391427
 137    -0.0144686553073009
 138     0.0023184069030775
 139     0.0001219041133431
 140    -0.0012891713718191
 141    -0.0113540029420784
 142     0.0257680960020823
 143     0.0013010366209615
 144     0.0007714185299845
 145     0.0119652114951309
 146    -0.0250933397429005
 147    -0.0012226294536987
 148    -0.0007048184035100
 149     0.0036552617488654
 150     0.0090639415402864
 151    -0.0062738910150799
 152    -0.0089870081414385
 153    -0.0006276914959851
 154     0.0021879513370545
 155    -0.0301933213434055
 156     0.0469505608309033
 157    -0.0012539084086456
 158     0.0053161900457045
 159     0.0027300387196206
 160     0.0003828457445594
 161    -0.0050456335339058
 162     0.0088277369277935
 163    -0.0097250941147910
 164    -0.0311150879543533
 165     0.0061396711209592
 166     0.0481053306904637
 167     0.0027776591534781
 168     0.0051182178001291
 169    -0.0060644456072264
 170     0.0036133379216584
 171    -0.0072031264369471
 172    -0.0110267638208126
 173     0.0441407303699488
 174    -0.0003496290946688
 175    -0.0420177920624202
 176     0.0092810288269137
 177    -0.0052114422805999
 178    -0.0056119335303314
 179    -0.0014791049386283
 180    -0.0012439903712546
 181     0.0005199068023400
 182     0.0251795987988942
 183    -0.0482146001123674
 184    -0.0016674366374158
 Sym= 111A
 Ene= 0.122194
 Spin= Alpha
 Occup= 2.000000
  1     0.0004749693431762
  2    -0.0029499432190636
  3     0.0031879708360585
  4    -0.0029730203487671
  5    -0.0081233511653648
  6     0.0015836118691256
  7    -0.0101901521245354
  8    -0.0191366838866322
  9     0.0504732950992760
 10     0.0014786055158231
 11    -0.0017849873307620
 12     0.0092663887127760
 13     0.0029935472988945
 14     0.0028579669551542
 15     0.0079915844835695
 16     0.0441603929986605
 17     0.0047434772820052
 18    -0.0187989068604287
 19     0.0059992727414470
 20     0.0039224580960403
 21     0.0057227917264835
 22    -0.0027867689688588
 23     0.0050370470456201
 24     0.0036463547759119
 25     0.0119159728640790
 26     0.0305598654582686
 27    -0.0286545504866793
 28    -0.0007810054376833
 29    -0.0033170267183845
 30     0.0015484356235543
 31    -0.0100376449295717
 32     0.0003684936925395
 33    -0.0015276122340199
 34    -0.0478782484153262
 35    -0.0209652932122958
 36    -0.0008514334838459
 37     0.0000281283803267
 38    -0.0150868670201569
 39     0.0000764542949136
 40     0.0000040435669240
 41     0.0001949780735689
 42    -0.0102193827149239
 43    -0.0000052168866990
 44     0.0002267306889373
 45     0.0000058253849302
 46    -0.0156250696001082
 47    -0.0116949404654219
 48    -0.0000061513724171
 49     0.0001013647639282
 50     0.0299319122696029
 51    -0.0192555231801528
 52     0.0000787535823976
 53     0.0000763399909400
 54     0.0161566165344593
 55    -0.0013379792017014
 56    -0.0018235407554176
 57     0.0038682376623742
 58    -0.0044980127882103
 59    -0.0013963775924361
 60     0.0025285733147312
 61    -0.0000256148152979
 62     0.0164895521974174
 63    -0.0013537243116889
 64     0.0018608659871458
 65    -0.0037956127459327
 66    -0.0048895903485408
 67    -0.0015105603108099
 68    -0.0024999188303402
 69    -0.0012766847104742
 70     0.0140931340756044
 71     0.0124292774334385
 72    -0.0002787372014062
 73     0.0127797214964535
 74    -0.0152750044657859
 75     0.0080580932586810
 76     0.0123158656288222
 77     0.0013419964969440
 78     0.0140932158058197
 79     0.0124261534942859
 80     0.0001914683428825
 81    -0.0114750145468356
 82    -0.0153003115889141
 83     0.0079736742378168
 84    -0.0105432516467146
 85     0.0015646738736172
 86    -0.0053210490048435
 87    -0.0051465907524004
 88    -0.0003949111450412
 89    -0.0435872985733196
 90     0.0069570253814665
 91     0.0355007217582561
 92    -0.0257712870284969
 93    -0.0016175818924762
 94    -0.0052752047532266
 95    -0.0052042441289462
 96     0.0004165552191623
 97     0.0425372530447647
 98     0.0061241287624484
 99     0.0344959549005458
 100     0.0250530388283139
 101     0.0002009381963481
 102    -0.0075595880359509
 103    -0.0056335199592239
 104    -0.0002597915189055
 105     0.0036326344351382
 106     0.0260470933575599
 107    -0.0232689909719774
 108     0.0049173848762356
 109    -0.0002105479160014
 110     0.0272520003988449
 111     0.0105459482713808
 112     0.0000363191561914
 113    -0.0036738124676253
 114     0.1661348915477364
 115     0.2315853862495000
 116    -0.0010675052457729
 117     0.0013603334248689
 118    -0.0120081658757667
 119    -0.0025110274804839
 120    -0.0009817612452307
 121     0.0257504666611321
 122    -0.1040483219136454
 123    -0.1058889828337965
 124     0.0190310207061615
 125     0.0010661156691386
 126    -0.0002587546975911
 127    -0.0006471343859864
 128     0.0036771576643346
 129    -0.0011014556424358
 130     0.0002560707939002
 131     0.0005512679865631
 132    -0.0035257279332176
 133     0.0002939177102652
 134    -0.0002326461793357
 135    -0.0143018128302688
 136     0.0006291143117388
 137    -0.0003350329491352
 138     0.0002103997468829
 139     0.0134159918860596
 140    -0.0007165850910622
 141    -0.0007558992915044
 142     0.0007037911627871
 143     0.0080713069557837
 144    -0.0201113906510469
 145     0.0007007639004074
 146    -0.0007488755286428
 147    -0.0090276020414638
 148     0.0192188627079503
 149     0.0024002978895339
 150    -0.0683037889757034
 151    -0.0176731795476847
 152    -0.0585264649012987
 153     0.0072988988581716
 154    -0.0278844827276936
 155    -0.2680546329315881
 156    -0.4122802073521954
 157     0.0154341439904410
 158    -0.0796800418642920
 159     0.0294061707504824
 160    -0.0498299053521282
 161    -0.0136283878261100
 162     0.0065749073065886
 163     0.0537419909499077
 164     0.2235319310780305
 165     0.2624516595752149
 166     0.0081131004906690
 167    -0.0282128472915602
 168    -0.0361594973137256
 169    -0.0520711455862269
 170     0.0171436820183469
 171     0.0570907049908949
 172     0.1495641734184818
 173     0.2532559826410649
 174     0.0840851197758892
 175     0.3718486594006494
 176    -0.0480954370469108
 177    -0.0104672591826523
 178     0.0005905423658265
 179    -0.0198957732590652
 180    -0.0682878345679308
 181     0.0474133428066026
 182    -0.2161979804778480
 183    -0.0234639681008794
 184    -0.4348627096315089
 Sym= 112A
 Ene= 0.125500
 Spin= Alpha
 Occup= 2.000000
  1     0.0013521249449331
  2     0.0013156646380629
  3     0.0142245532623318
  4     0.0223011954684827
  5    -0.0447651494290904
  6     0.1598828288808845
  7    -0.2168429698673224
  8    -0.2428739031451059
  9     0.3423843628962050
 10     0.0168889095651854
 11    -0.0291534442584390
 12     0.0525724381467439
 13     0.0108832923250276
 14     0.0089049223876508
 15     0.2723293126842566
 16     0.1943185187295776
 17     0.3364159653538788
 18    -0.0710349118168488
 19     0.0308608392060362
 20     0.0277199205892124
 21     0.0395020604388076
 22    -0.0449260944963274
 23     0.0237254163345107
 24     0.2100875979127617
 25     0.2501858928034639
 26    -0.0401847011512250
 27    -0.1202313444059622
 28    -0.0237141967793022
 29    -0.0083638394775225
 30    -0.0133555787987562
 31    -0.0494193794026192
 32     0.0183211760741022
 33    -0.0736987017162787
 34    -0.2747098528432486
 35    -0.1284388554028759
 36    -0.0422903254138854
 37     0.0004750514296327
 38     0.0944513668909727
 39    -0.0014469964966651
 40    -0.0005374192071499
 41     0.0001859453207658
 42     0.1038762680348503
 43    -0.0014034758504090
 44     0.0001118259171233
 45     0.0003404450497751
 46    -0.1193322233814538
 47    -0.0922064677437827
 48    -0.0002523900315070
 49     0.0000650213025694
 50     0.0312307977714094
 51    -0.0243977056385184
 52     0.0000688464117422
 53     0.0106790222738597
 54    -0.0111035387496489
 55    -0.0098201311261629
 56    -0.0071915738202178
 57    -0.0015437259297039
 58    -0.0763155116094331
 59    -0.0037245664162483
 60     0.0041991248415304
 61    -0.0104268012368227
 62    -0.0100932239797782
 63    -0.0101053405829556
 64     0.0071372241265966
 65     0.0017009051958779
 66    -0.0772476975655165
 67    -0.0038318720413575
 68    -0.0042444112414934
 69     0.0087665710516960
 70     0.0642642535926631
 71     0.0435079892178658
 72     0.0042896301253013
 73    -0.0077802226056617
 74    -0.0418573705991760
 75     0.0417316072238158
 76     0.0035643438452475
 77    -0.0053282733592554
 78     0.0644941238584422
 79     0.0432349039235594
 80    -0.0086458350852265
 81     0.0086790930588517
 82    -0.0418967795451749
 83     0.0417038117248073
 84    -0.0023520599312712
 85     0.0032429997876804
 86     0.0288253706464038
 87     0.0188679834351849
 88    -0.0053308285623826
 89     0.0065795404688441
 90     0.0170557442350043
 91    -0.0176101546058577
 92     0.0007436645903495
 93    -0.0059913945783467
 94     0.0309356554392795
 95     0.0161250584271006
 96     0.0064386133805214
 97    -0.0072882462788166
 98     0.0165023200298529
 99    -0.0183478211680236
 100    -0.0011986009160215
 101     0.0097773640889607
 102    -0.1045653469570820
 103    -0.0803782080735322
 104    -0.0124227809755958
 105     0.0025296038832210
 106     0.0295919463577581
 107    -0.0207077812916317
 108     0.0034173644590195
 109    -0.0101308741621028
 110     0.1217272702026326
 111     0.0404179331253327
 112     0.0013028896376411
 113    -0.0025447561324339
 114    -0.0920991426892636
 115     0.0276444550907443
 116    -0.0006991194040183
 117     0.0656033700545450
 118    -0.0082874028511301
 119     0.0273014568086475
 120    -0.0470048785857316
 121     0.0178765279586694
 122     0.0298467376012037
 123     0.0002657819298537
 124     0.0131516969859384
 125    -0.0002311790954312
 126     0.0023225839151504
 127     0.0044841692523728
 128    -0.0014054067101546
 129    -0.0000436860599647
 130    -0.0018891473921604
 131    -0.0046179043778478
 132     0.0014879214610411
 133    -0.0013123718367423
 134     0.0034519679837704
 135     0.0017216358677849
 136    -0.0014773806445400
 137    -0.0009692910762940
 138    -0.0036188413451434
 139    -0.0023227437743001
 140     0.0013829092042880
 141    -0.0004745547813044
 142     0.0022992921415498
 143    -0.0040386122319273
 144     0.0019898806698672
 145    -0.0019678681675531
 146    -0.0048084602040294
 147     0.0033591918043370
 148    -0.0025940770579997
 149     0.0070686339374872
 150    -0.0069806362264684
 151    -0.0031775801565967
 152     0.0332465946703334
 153     0.0051746559939625
 154    -0.0193856396499136
 155     0.1784632527907235
 156    -0.0627606385522287
 157     0.0109976477359137
 158     0.0009157813767316
 159    -0.0047199232472739
 160     0.0123407939736083
 161    -0.0006463705703090
 162    -0.0274532489472723
 163     0.0335097029402095
 164     0.0613751910571427
 165    -0.0944323565880230
 166    -0.1931428282606488
 167    -0.0063442471387393
 168    -0.0094339519793412
 169     0.0342266054684738
 170    -0.0071739536780959
 171     0.0062693147476016
 172     0.0781718671515931
 173    -0.1287370262055949
 174     0.0897763101172294
 175     0.0468521474778900
 176    -0.0186323000213440
 177     0.0129660436198860
 178     0.0220868561455750
 179     0.0159373268430667
 180     0.0176971172642318
 181     0.0635549922232943
 182    -0.0822002900886293
 183     0.0404135691874755
 184     0.1068239560580129
 Sym= 113A
 Ene= 0.126178
 Spin= Alpha
 Occup= 2.000000
  1    -0.0151318353550241
  2     0.0165792082738134
  3    -0.0106494432044114
  4     0.0405230256218301
  5     0.0183570761467606
  6     0.1950589570063877
  7    -0.1600503876070805
  8    -0.1767535331070902
  9    -0.0974896748106969
 10    -0.0002107862892891
 11    -0.0162432649636740
 12    -0.0203676778206234
 13    -0.0038528927784674
 14    -0.0217741919030658
 15     0.2073109032030693
 16    -0.0717902971204177
 17     0.3126975904255546
 18     0.1511901698399490
 19    -0.0264244104625046
 20     0.0071169950985293
 21    -0.0104058832589779
 22    -0.0323733359845684
 23    -0.0077521855090052
 24     0.1732657276464876
 25     0.1457482938286507
 26    -0.2504234665411781
 27     0.0828350931195925
 28    -0.0010416264266621
 29     0.0270469003261304
 30     0.0067426505679468
 31     0.0186994454509941
 32     0.0166290649249123
 33    -0.0657405903675286
 34     0.1065689235380051
 35     0.1045418977152487
 36    -0.0381692847276737
 37     0.0003753508065206
 38    -0.0277302053628068
 39     0.0008115205804106
 40    -0.0005113397456009
 41    -0.0004713258353088
 42    -0.0340038380255492
 43     0.0007507717188195
 44    -0.0006159802015496
 45     0.0002949787192351
 46     0.0559529875323255
 47     0.0426906963809847
 48    -0.0002296831043606
 49    -0.0002829436715150
 50    -0.0276909595165618
 51     0.0216339942563681
 52    -0.0002204236267195
 53    -0.0045515979993570
 54    -0.0055204054410107
 55     0.0048450592010037
 56     0.0035406885386860
 57    -0.0004146649500053
 58     0.0328385729330417
 59     0.0027010327417271
 60    -0.0027439630783704
 61     0.0046193438887003
 62    -0.0054900787016691
 63     0.0046186470673022
 64    -0.0037364563685647
 65     0.0003213258055077
 66     0.0330811576625946
 67     0.0029790442732853
 68     0.0025606331625318
 69    -0.0018773580492252
 70    -0.0341407995290183
 71    -0.0243139257814062
 72    -0.0029564915232965
 73     0.0022599101472211
 74     0.0236966757753451
 75    -0.0221343752886541
 76    -0.0015577406252329
 77     0.0049627183559815
 78    -0.0339288844055862
 79    -0.0245618643795235
 80    -0.0009479722270176
 81    -0.0057496311251045
 82     0.0238968149907713
 83    -0.0219811077886745
 84    -0.0031228598351776
 85     0.0014270406805535
 86    -0.0062103782289312
 87    -0.0046403969564009
 88     0.0001655111530762
 89    -0.0067750214457512
 90     0.0016503771622129
 91     0.0036922323850893
 92    -0.0029988538925691
 93    -0.0039162799390630
 94    -0.0043426510044796
 95    -0.0070697068244824
 96     0.0008014997448491
 97     0.0095176785019443
 98     0.0037577258138443
 99     0.0064940355597824
 100     0.0047689952730261
 101     0.0087330430488311
 102     0.0445465599249795
 103     0.0333221823791897
 104    -0.0110505531695086
 105    -0.0097110086987100
 106    -0.0270333182884735
 107     0.0194452512927468
 108    -0.0130590809581273
 109    -0.0090065706715466
 110    -0.0445971777514836
 111    -0.0489360608286149
 112     0.0010719440782271
 113     0.0097180624957185
 114     0.0624430627338532
 115     0.0154324078419612
 116     0.0025424057220332
 117     0.0585933727017481
 118    -0.0013171244310199
 119     0.0096244330871234
 120    -0.0419251523049837
 121    -0.0685789500904907
 122    -0.0159613555470479
 123    -0.0217295055005038
 124    -0.0503739211097662
 125    -0.0004839578262668
 126    -0.0008595446079102
 127    -0.0019363342429816
 128     0.0003724012973685
 129     0.0003314318130997
 130     0.0012847255511934
 131     0.0021346783819535
 132    -0.0008175464225151
 133     0.0005223875942684
 134    -0.0014651832547781
 135    -0.0011765108112247
 136     0.0003977752157310
 137    -0.0025676548307262
 138     0.0013748936606884
 139     0.0035354098390105
 140    -0.0002056503079551
 141    -0.0021560881846184
 142     0.0000975910709337
 143     0.0036887840626817
 144    -0.0022921659160855
 145     0.0000193479614619
 146    -0.0024001326116699
 147    -0.0011189346425922
 148     0.0046677739517370
 149    -0.0121659155721367
 150    -0.0148123920923181
 151     0.0039827561420321
 152    -0.0231245919740973
 153    -0.0198757135474722
 154     0.0744378273554284
 155    -0.1262510179660057
 156    -0.0138961093663039
 157    -0.0423856279947703
 158    -0.0135830691315267
 159    -0.0085614079350023
 160    -0.0069831012158966
 161     0.0344833830894703
 162     0.0170263342280169
 163    -0.1952332939868083
 164    -0.1993487216483062
 165     0.2523173948273910
 166     0.1484916306006610
 167     0.0070264486102273
 168     0.0239825564630415
 169    -0.0241876159543930
 170     0.0047193299432501
 171     0.0109771887204012
 172    -0.2595308545522778
 173     0.0879820531070732
 174    -0.3596053717612770
 175     0.0683247253652335
 176     0.0000781061807503
 177    -0.0203633266058740
 178    -0.0176182222264188
 179    -0.0447165869498348
 180    -0.0144854053220266
 181    -0.2180481913997495
 182     0.2150894442921596
 183     0.1611837101906403
 184    -0.0647327865666698
 Sym= 114A
 Ene= 0.126468
 Spin= Alpha
 Occup= 2.000000
  1    -0.0170360753822061
  2     0.0168103149387895
  3    -0.0156319838494919
  4     0.0361332734179291
  5     0.0324223180801959
  6     0.1631708666815843
  7    -0.1087001381022521
  8    -0.1206620065646548
  9    -0.2062035345109307
 10    -0.0054593208097563
 11    -0.0089593945155092
 12    -0.0370709100176715
 13    -0.0067785870062880
 14    -0.0259692678327749
 15     0.1405861036820458
 16    -0.1285176964893657
 17     0.2342945111384133
 18     0.1847804466559012
 19    -0.0374875610124972
 20     0.0000703546178427
 21    -0.0228678243714413
 22    -0.0216915307036068
 23    -0.0148197204919528
 24     0.1222269897489072
 25     0.0818899067566278
 26    -0.2517778011093750
 27     0.1228319773367979
 28     0.0072457997232762
 29     0.0314663230670283
 30     0.0133946394184738
 31     0.0337723510945980
 32     0.0123824603795732
 33    -0.0485337840359095
 34     0.1940412525366037
 35     0.1512785589287848
 36    -0.0283382600188676
 37     0.0003706392830317
 38    -0.0765614623186115
 39     0.0010776201186293
 40    -0.0003226584636831
 41     0.0005221583930628
 42    -0.0850280817535798
 43     0.0010332973926985
 44     0.0005592495281425
 45     0.0002014391238168
 46     0.0971788185496473
 47     0.0747804997917183
 48    -0.0001779240138115
 49     0.0002567977499122
 50    -0.0233316729276882
 51     0.0176443723235107
 52     0.0002100835086036
 53    -0.0086909020761535
 54     0.0084217054488092
 55     0.0080866668008606
 56     0.0059540482709884
 57     0.0014169004263960
 58     0.0624996652968960
 59     0.0028521105063661
 60    -0.0034839614705545
 61     0.0089470433666725
 62     0.0095927239755367
 63     0.0078644645969101
 64    -0.0059025080626654
 65    -0.0011573678226538
 66     0.0612647617015144
 67     0.0025463354146106
 68     0.0034649470388717
 69    -0.0060857102924468
 70    -0.0530044286327077
 71    -0.0353651330186762
 72    -0.0051721855360718
 73     0.0063885676017250
 74     0.0332009499044216
 75    -0.0325890695804867
 76    -0.0024109855757799
 77     0.0083469177417915
 78    -0.0528850667244983
 79    -0.0355453392069077
 80     0.0022797939361918
 81    -0.0030861663590365
 82     0.0331541243796098
 83    -0.0328199698177092
 84     0.0068773028056262
 85     0.0011522626569626
 86    -0.0215621089832069
 87    -0.0156412154685289
 88     0.0020373374059122
 89     0.0009180102055829
 90    -0.0174792351548556
 91     0.0123234250603131
 92     0.0030755165840328
 93    -0.0030067052799186
 94    -0.0201738843812960
 95    -0.0174134885119484
 96    -0.0013309815328577
 97    -0.0035390984043085
 98    -0.0195990689928777
 99     0.0097706879101214
 100    -0.0047634733827302
 101     0.0064465243924949
 102     0.0845787327859144
 103     0.0641263988568401
 104    -0.0081497230585997
 105     0.0092224872703659
 106    -0.0209590193034684
 107     0.0149901877417534
 108     0.0123905072042444
 109    -0.0066357570217776
 110    -0.0790778279834649
 111    -0.0623994673152948
 112     0.0007635708040364
 113    -0.0092108076825232
 114     0.0430860805788928
 115    -0.0637635503173007
 116    -0.0023631100706377
 117     0.0432873717004260
 118    -0.0057662686992282
 119    -0.0018017560864786
 120    -0.0309568285915521
 121     0.0651655050551021
 122    -0.0093081001810760
 123     0.0235639141472504
 124     0.0478407840492528
 125     0.0001239805679239
 126    -0.0019942571048539
 127    -0.0037446855185428
 128     0.0008794670378398
 129    -0.0003745501588447
 130     0.0022621086094490
 131     0.0034514583636295
 132    -0.0004984227803961
 133     0.0011646479134295
 134    -0.0030418732673400
 135    -0.0002955995467819
 136     0.0010592986738202
 137    -0.0026452142335532
 138     0.0029111485636641
 139    -0.0019275570504385
 140    -0.0012862447484409
 141    -0.0026980417339804
 142    -0.0004308108212533
 143     0.0002605333683722
 144     0.0006694130860051
 145     0.0011355018571878
 146    -0.0012889660418896
 147    -0.0026853396396538
 148    -0.0029449835820728
 149     0.0032083963287855
 150     0.0317104705197527
 151     0.0036075130634387
 152    -0.0157849184419452
 153     0.0189162590460828
 154    -0.0707495840768193
 155    -0.0887071645597366
 156     0.1229235557474062
 157     0.0403758868181868
 158     0.0192670057057747
 159     0.0170912792074526
 160    -0.0080760380129716
 161    -0.0440498753732712
 162     0.0170741290994622
 163     0.2149315359416019
 164     0.1756014281590422
 165    -0.2094618258453742
 166     0.0889647504019631
 167     0.0009925113708946
 168    -0.0179530082136857
 169    -0.0169696199238437
 170     0.0030522564240728
 171    -0.0252791075944663
 172     0.2285393167791697
 173     0.0586833123091470
 174     0.3469474535676383
 175    -0.1727148202944336
 176     0.0287795229858856
 177     0.0094313574083954
 178    -0.0092935173305895
 179     0.0373443643692210
 180    -0.0047140402965381
 181     0.1962315918748095
 182    -0.1630875230978628
 183    -0.2691702033037296
 184    -0.0611070249996181
 Sym= 115A
 Ene= 0.135739
 Spin= Alpha
 Occup= 2.000000
  1     0.0100581465721818
  2    -0.0026426074582922
  3     0.0114765235212822
  4    -0.0037762330934345
  5    -0.0195958377457900
  6    -0.0359256739931845
  7     0.0028020440092987
  8     0.0063046641764411
  9     0.1769790596721954
 10     0.0085646093217379
 11    -0.0014683460150966
 12     0.0262142548003323
 13     0.0015219751375603
 14     0.0114028783594304
 15     0.0160949739030159
 16     0.0583270366365445
 17    -0.0024941957277190
 18    -0.1046811839170742
 19     0.0223063493519990
 20     0.0021598746346605
 21     0.0195783571729157
 22    -0.0006083111753425
 23     0.0085298427859964
 24     0.0102063321315899
 25     0.0256904230437741
 26     0.0555817316022028
 27    -0.0750427072302260
 28    -0.0241524924216854
 29    -0.0141591617066289
 30    -0.0316104135335831
 31    -0.0204553071859077
 32    -0.0004296062975462
 33     0.0008456216975928
 34    -0.1368563535174855
 35    -0.0965167792062986
 36     0.0007768176183454
 37    -0.0000149969929961
 38     0.2597980043734829
 39     0.0011687220106519
 40    -0.0000316588786791
 41     0.0000318760319192
 42     0.2282391391457396
 43     0.0019314664141537
 44    -0.0000001183948995
 45     0.0000073762729559
 46    -0.0663761338925523
 47    -0.0554783777762590
 48     0.0000120907803801
 49    -0.0000111214721421
 50    -0.2292567218194406
 51     0.1736755057573469
 52     0.0000104837196012
 53     0.0157943718197438
 54    -0.1527438339298967
 55    -0.0037681956924715
 56     0.0010023214219118
 57    -0.0250406953231291
 58    -0.0516477160161427
 59     0.0178424687092199
 60    -0.0105209489370323
 61    -0.0157783643630709
 62    -0.1527619577037481
 63    -0.0037652493144912
 64    -0.0009325986658603
 65     0.0250328058006233
 66    -0.0516491903997867
 67     0.0178250954210904
 68     0.0105426123353591
 69     0.0204907450932535
 70    -0.0057835796062561
 71    -0.0257631738891627
 72     0.0113745768616433
 73    -0.0191605196728042
 74     0.0915284440583459
 75    -0.0540172066786622
 76     0.0118378263180157
 77    -0.0205305815895085
 78    -0.0057934048977864
 79    -0.0257695050145376
 80    -0.0113379681065045
 81     0.0192576071634078
 82     0.0915190655182737
 83    -0.0540059175858477
 84    -0.0116976416466223
 85    -0.0049200873805425
 86     0.0897540215368439
 87     0.0685439201233287
 88    -0.0058930579954137
 89     0.0034812281488114
 90     0.1213995625711257
 91    -0.0924733468641115
 92    -0.0062559502778300
 93     0.0049681055603088
 94     0.0897457025438180
 95     0.0685692175894946
 96     0.0059148378425364
 97    -0.0035835484947857
 98     0.1213707883731166
 99    -0.0925414358927951
 100     0.0062617181866744
 101    -0.0001146201739764
 102    -0.1200314397327486
 103    -0.0933111134482155
 104     0.0001190213516326
 105     0.0002662333103295
 106    -0.2314237664206192
 107     0.1761861237940240
 108     0.0003026802238952
 109     0.0000877474066738
 110     0.0066950442326414
 111     0.0011301846062998
 112     0.0000126767298743
 113    -0.0002143959541115
 114     0.0508401823596175
 115    -0.0281949051740634
 116    -0.0000086526757795
 117    -0.0008395565348364
 118     0.0770850170312271
 119     0.0594465133119799
 120     0.0005951576930763
 121     0.0019537920451923
 122     0.1252464759395855
 123    -0.0987486226881036
 124     0.0014650912383022
 125    -0.0101670465588995
 126     0.0054964578854251
 127     0.0056401548254040
 128    -0.0073978150777178
 129     0.0101623606164433
 130    -0.0054978454799868
 131    -0.0056514553815779
 132     0.0074071579142577
 133    -0.0023685561737068
 134     0.0068071819009286
 135     0.0034942832925330
 136    -0.0071113419109564
 137     0.0023887500640112
 138    -0.0068058535096049
 139    -0.0035438389558051
 140     0.0071116024060182
 141     0.0066500058497455
 142    -0.0002230214535154
 143    -0.0052304541841469
 144    -0.0002173742658803
 145    -0.0066430812728276
 146     0.0002848706639294
 147     0.0051934832492965
 148     0.0001128972629244
 149    -0.0459992182387246
 150     0.0305212722709322
 151     0.0600635383576910
 152    -0.0447440709669300
 153     0.0007825263554766
 154    -0.0020293011098793
 155    -0.2918631717762603
 156     0.2025404103836478
 157     0.0015210448774854
 158     0.0206023015502962
 159     0.0058369127784382
 160    -0.0240377657640823
 161    -0.0083421712472758
 162     0.0421005740408343
 163     0.0749558295727828
 164     0.0058891342779154
 165    -0.0122810384378686
 166     0.3747498497289563
 167     0.0177511807255569
 168     0.0032501809359128
 169    -0.0559228585141303
 170     0.0031784866733768
 171    -0.0241316656995891
 172    -0.0326461065745108
 173     0.1257882222548216
 174     0.0058801785079084
 175    -0.2191252235699784
 176     0.0471965822238801
 177    -0.0046515869425312
 178    -0.0414480014654899
 179    -0.0014737179507150
 180    -0.0185788412688217
 181    -0.0212729045781265
 182     0.0547072408639780
 183    -0.1189250696419579
 184    -0.1608879362037759
 Sym= 116A
 Ene= 0.177817
 Spin= Alpha
 Occup= 2.000000
  1    -0.0135007090221516
  2    -0.0008088843016747
  3    -0.0158346610322276
  4    -0.0017084375136629
  5     0.0048635678089426
  6     0.0215878283687359
  7    -0.0042517700441745
  8    -0.0041886405689864
  9    -0.1805549975812497
 10    -0.0132164922975395
 11    -0.0012662145923618
 12    -0.0179738951902515
 13     0.0003380466748987
 14    -0.0030807001463987
 15    -0.0135449301026429
 16    -0.0085079680470424
 17    -0.0033792992343911
 18     0.1169746807103755
 19    -0.0152932280973246
 20     0.0005832552489947
 21    -0.0168805756620801
 22    -0.0003836785812804
 23    -0.0019566883522494
 24    -0.0082216007556288
 25    -0.0063639219503722
 26    -0.0071404302805636
 27     0.0637898492528997
 28     0.0623271683399765
 29     0.0121562941508010
 30     0.0743845224296360
 31     0.0146656137210585
 32     0.0002084322788225
 33     0.0004936308288647
 34     0.0759546906969150
 35     0.0610609693019067
 36    -0.0001189457236287
 37    -0.0000364939092287
 38     0.0409300010105994
 39    -0.0105024499844551
 40     0.0000303271808950
 41     0.0000031917708140
 42     0.2096083622269342
 43    -0.0048359977028380
 44    -0.0000254308076117
 45     0.0000260113901520
 46    -0.2971982345491758
 47    -0.2271892183692718
 48     0.0000218803238903
 49    -0.0000073456013133
 50     0.0213527802117887
 51    -0.0120136962854970
 52     0.0000097823396282
 53     0.0258117119799396
 54     0.0874447069678891
 55    -0.0294727121047276
 56    -0.0146922950426114
 57    -0.0104488233691116
 58    -0.1816862197796431
 59    -0.0055688431324246
 60     0.0066473283988022
 61    -0.0258098402066752
 62     0.0874536887247278
 63    -0.0294456284766375
 64     0.0146670923386644
 65     0.0104296403035458
 66    -0.1816996519369624
 67    -0.0055669459131229
 68    -0.0065672795615129
 69     0.0118500836770247
 70     0.2648010455475393
 71     0.2043550711173107
 72     0.0039261864779727
 73    -0.0150185650698580
 74    -0.0618696390178262
 75     0.0660595657275009
 76     0.0084196684221721
 77    -0.0118980829730545
 78     0.2648308480259480
 79     0.2043557035697504
 80    -0.0038134070783265
 81     0.0150096823731280
 82    -0.0618852449716525
 83     0.0660767989200238
 84    -0.0084501535046677
 85    -0.0050094161306431
 86    -0.2018040312609721
 87    -0.1506339932844799
 88    -0.0004442995062015
 89     0.0042364435308656
 90     0.0884974816964339
 91    -0.0675338052011753
 92    -0.0041865118506449
 93     0.0050390170930473
 94    -0.2018390913588053
 95    -0.1506101625405351
 96     0.0004065198467691
 97    -0.0042381965631475
 98     0.0885203537926138
 99    -0.0675379257710917
 100     0.0042168533611538
 101    -0.0000724773866395
 102     0.0945044362812075
 103     0.0751048651928224
 104     0.0001029933621167
 105    -0.0000144349689427
 106    -0.0602250628046092
 107     0.0481629415668563
 108    -0.0000283083734664
 109     0.0001378660222342
 110     0.2128625036417241
 111     0.1791170545157245
 112     0.0000275435592639
 113     0.0000252112210293
 114    -0.0778507244504506
 115     0.0587822015737683
 116    -0.0000172333016417
 117    -0.0002581680088293
 118    -0.2710798989035835
 119    -0.2270599106459645
 120     0.0001272953869854
 121    -0.0000805701677997
 122     0.1095599168955488
 123    -0.0818152462922194
 124    -0.0000118131410844
 125     0.0025133100420972
 126    -0.0013558259448976
 127     0.0139922197552091
 128    -0.0064929423845777
 129    -0.0024921169142064
 130     0.0013328808320917
 131    -0.0139828227445115
 132     0.0064839463563589
 133    -0.0089080846857590
 134     0.0107596544572438
 135     0.0003070600295619
 136    -0.0031309474384513
 137     0.0089098914908703
 138    -0.0107833202594764
 139    -0.0002981577701721
 140     0.0031238017554669
 141     0.0022173317719208
 142    -0.0024493780023420
 143    -0.0055678956633673
 144     0.0004965021664304
 145    -0.0021875847914320
 146     0.0024034039773201
 147     0.0055787164511196
 148    -0.0005058139354641
 149    -0.0230105318208908
 150     0.0046203508217855
 151     0.0307772607578110
 152    -0.0062433291457450
 153     0.0000528299184815
 154     0.0001465383367475
 155    -0.0319265289227508
 156     0.0228215871919474
 157     0.0000327420313635
 158     0.0049747813206463
 159    -0.0003269833366189
 160    -0.0066100784323672
 161     0.0006765395410220
 162     0.0020082556833414
 163     0.0086628910104322
 164     0.0018335801626929
 165    -0.0014931163841211
 166     0.0727344564866864
 167     0.0049215047175622
 168    -0.0004662626366021
 169    -0.0075237705321482
 170    -0.0001538360151170
 171    -0.0011582930012815
 172    -0.0049891556580174
 173     0.0036307341264345
 174    -0.0012750198714452
 175    -0.0435458573063952
 176     0.0057584155728787
 177     0.0002574158199182
 178    -0.0070312554743298
 179     0.0001804035725331
 180    -0.0008999860945009
 181    -0.0037161486562294
 182     0.0026674626820489
 183    -0.0027709423724444
 184    -0.0292078496081052
 Sym= 117A
 Ene= 0.188963
 Spin= Alpha
 Occup= 2.000000
  1    -0.0274400619097943
  2     0.0002958662885766
  3     0.0209778302822122
  4     0.0003527233493256
  5    -0.0008851783520274
  6    -0.0050136009284572
  7     0.0029714214002608
  8    -0.0035323614307266
  9     0.0412825290244983
 10    -0.0278044084860176
 11    -0.0028676005960405
 12     0.0214726091229648
 13    -0.0001240457771172
 14    -0.0025121051809535
 15    -0.0226082820247271
 16     0.0036133529500130
 17    -0.0033928344007437
 18     0.2370106375665958
 19    -0.0275374696281166
 20    -0.0016133223766514
 21     0.0219792572819988
 22     0.0029332392599525
 23     0.0030473968766718
 24     0.0269578565993114
 25     0.0034653421528646
 26    -0.0035696501199911
 27    -0.2779610561486665
 28     0.1353093886360247
 29     0.0238160578217255
 30    -0.1044944141191815
 31    -0.0185207014123633
 32     0.0004423152267830
 33     0.0010790355454004
 34    -0.0809990515376891
 35     0.1000541484322521
 36    -0.0002327538214236
 37    -0.0000076309373004
 38    -0.0014164649505009
 39     0.0014134000006652
 40     0.0000082990029178
 41    -0.0000011321585482
 42    -0.0079977346083874
 43     0.0018377461440004
 44     0.0000018019413909
 45    -0.0000061170228543
 46     0.0063097685600364
 47     0.0065133836923001
 48     0.0000051533170677
 49     0.0000004154815452
 50    -0.0042136278157495
 51     0.0030435001479849
 52    -0.0000006876991001
 53     0.0069941138616235
 54    -0.0066357398380004
 55     0.0037448080210949
 56    -0.0018246607166592
 57    -0.0004543001481137
 58     0.0086611761967606
 59     0.0018257245512893
 60     0.0009958536553963
 61    -0.0070015935610399
 62    -0.0066403884937162
 63     0.0037502285616910
 64     0.0018301328513335
 65     0.0004525529734273
 66     0.0086642164395867
 67     0.0018265415149564
 68    -0.0009980641955324
 69     0.0287792278992784
 70    -0.0033187170780119
 71    -0.0063746248327550
 72    -0.0261868755458624
 73     0.0001658371197279
 74     0.0057369671346239
 75    -0.0049866459287921
 76    -0.0001770426904524
 77    -0.0288417734699127
 78    -0.0033358026508947
 79    -0.0063819752020013
 80     0.0262464702222702
 81    -0.0001652403475117
 82     0.0057376412654737
 83    -0.0049874853352651
 84     0.0001794350311472
 85    -0.1202817293942748
 86    -0.0317581486909174
 87     0.0497240009614771
 88     0.0504501662410741
 89    -0.0000678022768933
 90    -0.0056891781015272
 91     0.0042501303706088
 92     0.0000934602989279
 93     0.1203397688326038
 94    -0.0317751329051559
 95     0.0498037319664445
 96    -0.0504470787469791
 97     0.0000678393651095
 98    -0.0056903582059933
 99     0.0042501628395204
 100    -0.0000952419893911
 101    -0.0001477283223825
 102    -0.0229104562495822
 103     0.0260144542047549
 104     0.0001670462296582
 105     0.0000010536767521
 106     0.0027843453677914
 107    -0.0022473929199002
 108     0.0000017109181310
 109     0.0002739982609102
 110    -0.3412849264008607
 111     0.4434436798887099
 112    -0.0000062616775302
 113    -0.0000017847275166
 114     0.0062674211497733
 115    -0.0049950613675145
 116     0.0000015393769006
 117    -0.0005625173460298
 118     0.3963312158336338
 119    -0.5127562822672557
 120     0.0003470418072452
 121     0.0000062826971458
 122    -0.0077983274864360
 123     0.0061728993906985
 124     0.0000011412771974
 125    -0.0067970431041402
 126     0.0178079165253680
 127    -0.0000774951791218
 128     0.0011172513479354
 129     0.0068052629209667
 130    -0.0178232623609406
 131     0.0000778993968488
 132    -0.0011161674488184
 133    -0.0336681150103339
 134     0.0045750464777659
 135     0.0002762075058866
 136    -0.0005402652868489
 137     0.0337114948361975
 138    -0.0045896329908103
 139    -0.0002767213840848
 140     0.0005410085555115
 141     0.0460910704060390
 142    -0.1147916682732484
 143     0.0001249939640781
 144    -0.0000345979773558
 145    -0.0460527601726090
 146     0.1148001426912792
 147    -0.0001256824434492
 148     0.0000353011382745
 149     0.0016644321401066
 150    -0.0003006069827837
 151    -0.0021005883709307
 152     0.0003823824603577
 153    -0.0000037013935985
 154    -0.0000112907974291
 155     0.0016502172820612
 156    -0.0012415447651247
 157    -0.0000018607330082
 158    -0.0003406000167218
 159     0.0000271223271274
 160     0.0004400038706444
 161    -0.0000488108596778
 162    -0.0000554985652044
 163    -0.0004565048871289
 164    -0.0000689556825981
 165     0.0000442113566503
 166    -0.0046990412286943
 167    -0.0003443695353315
 168     0.0000352060606822
 169     0.0004360904824241
 170     0.0000031738021121
 171     0.0000315885305996
 172     0.0002763759823636
 173    -0.0000784000263541
 174     0.0000430784587490
 175     0.0029327570367108
 176    -0.0003404585479648
 177    -0.0000116057672458
 178     0.0004294110075462
 179    -0.0000167571765151
 180     0.0000273894402748
 181     0.0001866900361511
 182    -0.0000656547130251
 183     0.0000465514227486
 184     0.0017657844164967
 Sym= 118A
 Ene= 0.203316
 Spin= Alpha
 Occup= 2.000000
  1    -0.0008963103539948
  2    -0.0000940403580311
  3    -0.0014717012778721
  4    -0.0001515825560148
  5    -0.0000870611861115
  6     0.0010277828459535
  7     0.0000133700725210
  8     0.0000560565211845
  9    -0.0141756057878259
 10    -0.0009102970067712
 11    -0.0000935299792261
 12    -0.0012499356643335
 13    -0.0000266037549047
 14     0.0000536137363268
 15    -0.0005345802894793
 16     0.0002753244909555
 17     0.0000470521907687
 18     0.0074942508198882
 19    -0.0007150214220389
 20     0.0000162154438291
 21    -0.0013322047034055
 22    -0.0000873083031211
 23     0.0000221247617927
 24    -0.0005173512796804
 25     0.0001607595637335
 26     0.0002629119473782
 27     0.0066824569224267
 28     0.0044994921166981
 29     0.0007266761401405
 30     0.0071810142105868
 31     0.0011680605209621
 32     0.0000136534673778
 33     0.0000385241850503
 34     0.0037997874501612
 35     0.0022353202565521
 36    -0.0000049660152277
 37    -0.0000048960153005
 38     0.0590826478771281
 39    -0.0022728572856748
 40    -0.0000044784158548
 41     0.0000117182306720
 42     0.0006831771638179
 43     0.0013419228090578
 44     0.0000124868039584
 45     0.0000047223895516
 46    -0.0338947035250581
 47    -0.0289605968604662
 48     0.0000038390019993
 49    -0.0000014964133505
 50    -0.0661303788862492
 51     0.0464035590114180
 52     0.0000043895908286
 53     0.0068515018334119
 54    -0.0427892209858517
 55    -0.0037811067945981
 56     0.0005103451776623
 57    -0.0143489396860927
 58     0.0213305659020961
 59     0.0031593359976529
 60    -0.0040941914886603
 61    -0.0068461703648901
 62    -0.0427914288752063
 63    -0.0037800315290928
 64    -0.0004911715196494
 65     0.0143520247174722
 66     0.0213291035193583
 67     0.0031516289660018
 68     0.0040905865577289
 69     0.0061332938040579
 70     0.0238012049527224
 71     0.0130868810328698
 72     0.0029273895931408
 73    -0.0306345048268616
 74     0.0605119497294496
 75    -0.0448656734587892
 76    -0.0245391000690324
 77    -0.0061383406490430
 78     0.0238026138965308
 79     0.0130855574040211
 80    -0.0029199862068552
 81     0.0306853873219222
 82     0.0604990763612840
 83    -0.0448562941932376
 84     0.0246084958847381
 85    -0.0010592223109192
 86    -0.0086552114705417
 87    -0.0069887774729323
 88    -0.0016839832059764
 89     0.1111693081415099
 90    -0.0771123249772767
 91    -0.0198512913429412
 92     0.0511945374836539
 93     0.0010620874354921
 94    -0.0086569209834840
 95    -0.0069870318690300
 96     0.0016849930498630
 97    -0.1112190713108896
 98    -0.0771168355682523
 99    -0.0199140212960538
 100    -0.0512098585364360
 101    -0.0000059630114617
 102    -0.0038222265882008
 103    -0.0035170410190835
 104     0.0000057255858656
 105     0.0001128769026538
 106    -0.0102076734319216
 107    -0.0251182495088566
 108     0.0001371623794526
 109     0.0000112013296336
 110     0.0274978945596882
 111     0.0172552741930368
 112     0.0000042036244402
 113    -0.0002138984871959
 114    -0.2782776334467584
 115    -0.5078131403098322
 116    -0.0000215332463121
 117    -0.0000210140161415
 118    -0.0282355909829790
 119    -0.0176904782611161
 120     0.0000087793932257
 121     0.0005436419117087
 122     0.3102814337306505
 123     0.5618956971405155
 124     0.0003333606683620
 125    -0.0034363985942128
 126     0.0008144462705683
 127     0.0076539680220337
 128    -0.0179169346988053
 129     0.0034361388318340
 130    -0.0008150304960114
 131    -0.0076625005137794
 132     0.0179325796149395
 133    -0.0013235073554841
 134     0.0034412453673716
 135     0.0345158880067584
 136    -0.0081616630324011
 137     0.0013229055101022
 138    -0.0034445679387450
 139    -0.0345448619791920
 140     0.0081698147246821
 141     0.0017508428166128
 142     0.0002582091505323
 143    -0.0341636290199590
 144     0.0863641668023026
 145    -0.0017485351536022
 146    -0.0002642835991574
 147     0.0341344420541308
 148    -0.0863760955856532
 149     0.1451545120384204
 150    -0.0237888493700415
 151     0.0800252802381220
 152    -0.0131724837396596
 153    -0.0003989846554975
 154    -0.0010308581258151
 155    -0.0425747082665460
 156    -0.0721653640487950
 157    -0.0002045852284454
 158    -0.0249622129540730
 159     0.0006243380414970
 160    -0.0133351609188225
 161     0.0002793145355269
 162     0.0004412144216472
 163     0.0004168630655639
 164    -0.0032397696413418
 165    -0.0062772865679574
 166    -0.0048998102428160
 167    -0.0293302362238322
 168     0.0030073837716226
 169    -0.0138913606993283
 170     0.0002867023499126
 171    -0.0017479515013687
 172     0.0170682087416134
 173    -0.0030070343122470
 174    -0.0014474496054190
 175     0.2410851363121653
 176    -0.0269514862309953
 177     0.0018639375581448
 178    -0.0178027875190094
 179     0.0023700335860935
 180     0.0016155898755311
 181    -0.0167033928377908
 182     0.0013870595625872
 183    -0.0040240228872328
 184    -0.2360675510413862
 Sym= 119A
 Ene= 0.204667
 Spin= Alpha
 Occup= 2.000000
  1    -0.0038699737676956
  2    -0.0004052488674628
  3    -0.0062773216239359
  4    -0.0006450527973334
  5    -0.0004651974854843
  6     0.0042507453389549
  7     0.0001454609558984
  8     0.0003191980654160
  9    -0.0604901416210812
 10    -0.0039393773215099
 11    -0.0004032864991463
 12    -0.0052545770359819
 13    -0.0001282768508064
 14     0.0002816427751648
 15    -0.0022400786159772
 16     0.0013548626860291
 17     0.0002671064849876
 18     0.0323445020651236
 19    -0.0030355166549920
 20     0.0000543648661060
 21    -0.0056349738042928
 22    -0.0003766999938045
 23     0.0001345704424819
 24    -0.0021158314506077
 25     0.0008242635503092
 26     0.0012604125714481
 27     0.0281484491709409
 28     0.0194878279457459
 29     0.0031265365824745
 30     0.0306287056204222
 31     0.0049487271881005
 32     0.0000591609861550
 33     0.0001675921254360
 34     0.0155741971497238
 35     0.0092829813433112
 36    -0.0000210302074252
 37    -0.0000258135506153
 38     0.2554731627728569
 39    -0.0024088957625460
 40    -0.0000212157100746
 41     0.0000190400273684
 42     0.0146236020197943
 43     0.0105030055247834
 44     0.0000199283991583
 45     0.0000218489500785
 46    -0.1451001724603135
 47    -0.1237154985500961
 48     0.0000180015130309
 49    -0.0000184601296781
 50    -0.2659320147321972
 51     0.2028994250704710
 52     0.0000013144431327
 53     0.0277024593431190
 54    -0.1866403398601716
 55    -0.0099812635963379
 56    -0.0035466159780696
 57    -0.0271026222431427
 58     0.0963994742929235
 59     0.0273048491176453
 60    -0.0077866216995480
 61    -0.0276882428760928
 62    -0.1866596936814378
 63    -0.0099720782345914
 64     0.0036250107528966
 65     0.0270898564367896
 66     0.0964110393056922
 67     0.0272936254100189
 68     0.0077576955557832
 69     0.0249462211327386
 70     0.1000127418583161
 71     0.0552544555079442
 72     0.0121714425603380
 73    -0.0025516616030683
 74     0.2375877908054953
 75    -0.1865473132618942
 76     0.0097665086103174
 77    -0.0249684371149421
 78     0.1000195320521451
 79     0.0552481832431702
 80    -0.0121400863665871
 81     0.0025678760621644
 82     0.2376191086882018
 83    -0.1865586328569591
 84    -0.0096935982251853
 85    -0.0047477042840369
 86    -0.0344750364365098
 87    -0.0281598201712988
 88    -0.0068753803659796
 89    -0.0251410482650888
 90    -0.1472135923907256
 91     0.1294897863980542
 92    -0.0137001313447219
 93     0.0047607151185303
 94    -0.0344824705832588
 95    -0.0281524127504790
 96     0.0068812627526325
 97     0.0251405900872951
 98    -0.1472442112690285
 99     0.1295045856874661
 100     0.0136717389405499
 101    -0.0000259037780486
 102    -0.0194957085302404
 103    -0.0173733092300589
 104     0.0000243494034925
 105     0.0000087118003519
 106     0.0230384741048463
 107    -0.0124456385352221
 108     0.0000113384109803
 109     0.0000487679707139
 110     0.1187494019197866
 111     0.0756070618439930
 112     0.0000183746410686
 113    -0.0000114464115754
 114     0.3515489815349990
 115    -0.0945446197156822
 116     0.0000797080876815
 117    -0.0000915052829977
 118    -0.1208040007460696
 119    -0.0768582282732783
 120     0.0000381893148469
 121     0.0001175331248516
 122    -0.3841432645643907
 123     0.1014229165741518
 124    -0.0000339075526555
 125    -0.0141958283628220
 126     0.0094450299845662
 127     0.0017977305376289
 128     0.0045447806030463
 129     0.0141983359468280
 130    -0.0094461674098140
 131    -0.0018028564729007
 132    -0.0045368606231918
 133    -0.0044166504519929
 134     0.0112294279018092
 135    -0.0001218656075506
 136    -0.0101098100775862
 137     0.0044132317054760
 138    -0.0112422063222652
 139     0.0001297628140798
 140     0.0101207364110871
 141     0.0074181122404915
 142     0.0002326533890817
 143     0.0078030027026896
 144    -0.0210975681204852
 145    -0.0074082867163004
 146    -0.0002593174116859
 147    -0.0078116150031246
 148     0.0211321199291532
 149     0.0261844420974388
 150    -0.0042906994568282
 151    -0.0988691190571392
 152     0.0162115937169599
 153    -0.0000399292758440
 154    -0.0001971344784117
 155     0.0506792905644025
 156    -0.0125490461768889
 157    -0.0000023179129007
 158    -0.0059808804560740
 159     0.0009788323991762
 160     0.0196179901937713
 161    -0.0018215442266179
 162     0.0011420116521623
 163    -0.0116702952829744
 164     0.0010587513084887
 165     0.0004347345478052
 166    -0.1644988520396942
 167    -0.0053183326272017
 168     0.0005405954728512
 169     0.0169650045957135
 170    -0.0003987689669402
 171    -0.0003744448824176
 172     0.0029791828648546
 173     0.0042345961020620
 174    -0.0003388625510814
 175     0.0435569618144918
 176    -0.0033297657776221
 177    -0.0005145059757657
 178     0.0187796832194111
 179    -0.0014594996056935
 180    -0.0007146631690637
 181     0.0088013880114940
 182     0.0019280555857639
 183    -0.0025160733492699
 184     0.1208275341690165
 Sym= 120A
 Ene= 0.233145
 Spin= Alpha
 Occup= 2.000000
  1     0.0010291403172314
  2     0.0001119311782116
  3     0.0029458938456312
  4     0.0002539359612682
  5     0.0008625885218831
  6    -0.0007273316725007
  7    -0.0011771034658262
  8    -0.0001104587577542
  9     0.0242939542512575
 10     0.0007768635922339
 11     0.0000797393284511
 12     0.0020055700700462
 13     0.0002217935537787
 14    -0.0002283764515496
 15     0.0003015242368433
 16    -0.0022093566330226
 17    -0.0003094842271912
 18    -0.0058354352401655
 19     0.0000870262968427
 20     0.0000270942419046
 21     0.0026783848386170
 22     0.0002419114726154
 23    -0.0006229262588516
 24     0.0004456497754306
 25    -0.0014441449014150
 26    -0.0009319699288535
 27    -0.0184453557958229
 28    -0.0044869805044810
 29    -0.0005237331962563
 30    -0.0146782402558553
 31    -0.0022625373339385
 32    -0.0000125223062096
 33    -0.0000426404737172
 34    -0.0017201404458619
 35    -0.0007742441805080
 36     0.0000009561661521
 37     0.0000247830436674
 38    -0.1642411081015609
 39     0.0333950717579432
 40     0.0000125919237608
 41     0.0000220268048983
 42     0.1326086737476357
 43     0.0356702054466192
 44    -0.0000143346162662
 45     0.0000039261409028
 46     0.0352897570713224
 47     0.0850929603646960
 48     0.0000039086777252
 49    -0.0000139115680160
 50    -0.0535277687328257
 51     0.0514535321767114
 52     0.0000108007140402
 53     0.1081212677505190
 54     0.0996975629577099
 55     0.0782816615473151
 56    -0.0266496670912681
 57     0.0042526408756887
 58    -0.1122164583531004
 59     0.0332059939223252
 60     0.0080171285471410
 61    -0.1080189026347852
 62     0.0997496452751720
 63     0.0782401085662386
 64     0.0265730695554499
 65    -0.0042357191399673
 66    -0.1122444085074875
 67     0.0331873280290545
 68    -0.0079746069597763
 69     0.1368390343166342
 70    -0.0695528820102163
 71     0.0761040520973216
 72     0.0238052007934829
 73    -0.0092114897674588
 74     0.0395711428278843
 75    -0.0078084853590229
 76     0.0049673349855594
 77    -0.1367075579529897
 78    -0.0695538065052921
 79     0.0760700090804695
 80    -0.0237338583470369
 81     0.0092185490781188
 82     0.0395769358769807
 83    -0.0078045572615560
 84    -0.0049619890664853
 85     0.0527517561126077
 86    -0.0484641227678673
 87     0.0373007774026754
 88    -0.0112401432964555
 89     0.0044509910227085
 90    -0.0027707668488594
 91     0.0039192714244182
 92    -0.0028125955803522
 93    -0.0526856401510675
 94    -0.0484347119160558
 95     0.0372837296677663
 96     0.0112316757070608
 97    -0.0044569941747047
 98    -0.0027724307704420
 99     0.0039196391593332
 100     0.0028196159595982
 101     0.0000192017814598
 102     0.0087918877478292
 103     0.0632663779627061
 104     0.0000050319074885
 105     0.0000046513455997
 106    -0.0210926495084722
 107     0.0202826385615150
 108     0.0000009279934474
 109    -0.0000125069012802
 110    -0.0767478312264189
 111    -0.0131381922860476
 112    -0.0000069904623109
 113    -0.0000093573786522
 114     0.0523618917146630
 115    -0.0406929261794734
 116     0.0000144030680254
 117     0.0000262003815471
 118     0.0596050740361376
 119     0.0203719967652016
 120    -0.0000029413671412
 121     0.0000426370110958
 122    -0.0476570052870551
 123     0.0372222296774486
 124     0.0000100426164292
 125    -0.1202802462743017
 126     0.2845661625143973
 127    -0.0157925914985388
 128     0.0396842351301060
 129     0.1201855455409165
 130    -0.2843841462193755
 131     0.0157797762191884
 132    -0.0396673928218494
 133    -0.1942306564662827
 134     0.4515474872571745
 135    -0.0030014463840158
 136     0.0060469139073388
 137     0.1941134528990442
 138    -0.4512710836399683
 139     0.0030094005932546
 140    -0.0060521695354906
 141    -0.0730138221929236
 142     0.1795056741048701
 143    -0.0061787265863089
 144     0.0017292487080164
 145     0.0729492933950884
 146    -0.1793427984338805
 147     0.0061791141381856
 148    -0.0017233845159258
 149     0.0090670456004395
 150    -0.0013380124474041
 151    -0.0116173283139745
 152     0.0017288577932607
 153    -0.0000227669444780
 154    -0.0000769816581469
 155     0.0015565648360893
 156    -0.0009281191564950
 157    -0.0000046579361060
 158    -0.0016957254909709
 159     0.0001845298786487
 160     0.0024479436504426
 161    -0.0002007469213544
 162     0.0008462674909844
 163    -0.0007065625776543
 164     0.0007103916592541
 165    -0.0008789509403033
 166    -0.0233569681730527
 167    -0.0018366457516226
 168     0.0001586475420040
 169     0.0015245597174559
 170    -0.0001728938709551
 171    -0.0005435981153895
 172     0.0004617190676189
 173     0.0016917310162691
 174    -0.0007194564478402
 175     0.0144410914250807
 176    -0.0009737217564334
 177     0.0001132554499044
 178     0.0018382373416778
 179    -0.0001873530424409
 180    -0.0002822324024231
 181     0.0002915028832710
 182     0.0012773859149094
 183    -0.0014965355975736
 184     0.0088892348262819
 Sym= 121A
 Ene= 0.237405
 Spin= Alpha
 Occup= 2.000000
  1    -0.0057273239979974
  2    -0.0006266046784399
  3    -0.0083362751259499
  4    -0.0006476114334845
  5    -0.0031650270473389
  6     0.0020022781526962
  7     0.0027638961693208
  8     0.0032794508642816
  9    -0.0791477292815781
 10    -0.0062137716881596
 11    -0.0005128220819982
 12    -0.0049834056929609
 13    -0.0006548223547052
 14     0.0020119270234880
 15    -0.0013107180795889
 16     0.0063147226871999
 17     0.0027439522471555
 18     0.0489211481820676
 19    -0.0030970459454622
 20    -0.0004422993675312
 21    -0.0061387621082093
 22    -0.0006672061831994
 23     0.0010726982924518
 24    -0.0008568772678852
 25     0.0047867520733789
 26     0.0054743989594080
 27     0.0301643846955800
 28     0.0302111350698512
 29     0.0044300612978842
 30     0.0393304498099646
 31     0.0057252357717879
 32     0.0001007052105716
 33     0.0003030502929009
 34     0.0032892008664840
 35     0.0014557085447187
 36    -0.0000169651169120
 37    -0.0000213892353607
 38     0.2718626711231189
 39     0.0029393468059341
 40    -0.0000349831939647
 41    -0.0000378574057914
 42    -0.3686349674172671
 43    -0.0014097875158687
 44     0.0000249805751903
 45     0.0000077229841499
 46    -0.0538844966369025
 47    -0.0489424176839292
 48     0.0000121237158678
 49     0.0000334712478757
 50     0.1684762027779909
 51    -0.1468925904914543
 52    -0.0000239296001576
 53     0.0392280606879413
 54    -0.2841758851370368
 55     0.0174466949988476
 56    -0.0193567853965924
 57     0.0245233847327753
 58     0.3122679960514909
 59    -0.0055472941234745
 60     0.0167487998025707
 61    -0.0392400329810169
 62    -0.2842012261503863
 63     0.0174554570372544
 64     0.0194453952513363
 65    -0.0245047915722711
 66     0.3122911781768668
 67    -0.0055318013090585
 68    -0.0168581261262096
 69     0.0613086746323314
 70     0.0031767681097495
 71     0.0023421208975387
 72     0.0187956127442673
 73     0.0282478732896989
 74    -0.1040491296458665
 75     0.0445753490420569
 76    -0.0155235606538203
 77    -0.0613563450486924
 78     0.0031642638542253
 79     0.0023484427410118
 80    -0.0187848420009708
 81    -0.0282590120925105
 82    -0.1040585880802400
 83     0.0445593782600182
 84     0.0154967687518760
 85     0.0043658712634300
 86     0.0509915741807437
 87     0.0537840839126809
 88    -0.0100006133046109
 89    -0.0094568974853266
 90    -0.0025100570523641
 91    -0.0018710268437462
 92     0.0079189920971656
 93    -0.0043860785668232
 94     0.0509776224498331
 95     0.0538067732522208
 96     0.0100422784455904
 97     0.0094669847267621
 98    -0.0025078143190407
 99    -0.0018687178536471
 100    -0.0079415590271309
 101    -0.0000536289188460
 102    -0.1440203941687180
 103    -0.0999121065339721
 104     0.0000236523405327
 105    -0.0000141051745998
 106     0.0909686926204743
 107    -0.0739626011833160
 108     0.0000015200801795
 109     0.0000849601475193
 110     0.1921931924758806
 111     0.1505464449904088
 112     0.0000324086334872
 113     0.0000271790472068
 114    -0.1893972159010155
 115     0.1346583003103434
 116    -0.0000495382655448
 117    -0.0001712737983823
 118    -0.1644687633550303
 119    -0.1255621356823126
 120     0.0000680173455193
 121    -0.0001412870537021
 122     0.1687385707365928
 123    -0.1203031346104827
 124    -0.0000320129531437
 125    -0.0355517144169445
 126     0.0937650117001852
 127    -0.0077981902639701
 128     0.0206548656331717
 129     0.0355627513929167
 130    -0.0937540034450940
 131     0.0078032455138633
 132    -0.0206226338449118
 133    -0.0473802147073047
 134     0.1146836707309677
 135     0.0027133017649131
 136    -0.0061007482122473
 137     0.0474112202857500
 138    -0.1147461431979283
 139    -0.0027322016717155
 140     0.0061073226563315
 141    -0.0066390830966751
 142     0.0403662350280686
 143     0.0120246880332739
 144    -0.0053523097281995
 145     0.0066985622459304
 146    -0.0404829382571255
 147    -0.0120196206599873
 148     0.0053234874550682
 149    -0.0291450786601030
 150     0.0042721999063557
 151     0.0408660571979850
 152    -0.0060257427153024
 153     0.0000744532641847
 154     0.0002547162604692
 155    -0.0034428380530444
 156     0.0015093138362018
 157     0.0000129926333202
 158     0.0055651797118857
 159    -0.0006071891454891
 160    -0.0085548784715761
 161     0.0006711666834937
 162    -0.0031867077422078
 163     0.0020294615506613
 164    -0.0029418469313572
 165     0.0030534918035345
 166     0.0799197109389977
 167     0.0059324255546510
 168    -0.0004924169298263
 169    -0.0051740742113251
 170     0.0006777608521270
 171     0.0019235077245252
 172    -0.0012706307781787
 173    -0.0064918587339493
 174     0.0026024522103999
 175    -0.0464771065818891
 176     0.0028425081135245
 177    -0.0004172096205748
 178    -0.0064622281510842
 179     0.0006877874651883
 180     0.0011961716662556
 181    -0.0009083988879031
 182    -0.0048447857668030
 183     0.0052910352022059
 184    -0.0333470739843482
 Sym= 122A
 Ene= 0.242854
 Spin= Alpha
 Occup= 2.000000
  1     0.0000528805900574
  2     0.0000633195013437
  3     0.0000878972068989
  4     0.0001164857444917
  5    -0.0005191156333661
  6     0.0002581356915624
  7    -0.0012000708464449
  8    -0.0007692088261837
  9    -0.0029398027098757
 10    -0.0001098580445854
 11    -0.0001285426722845
 12     0.0000033232922059
 13    -0.0000002014751143
 14    -0.0005124856916137
 15     0.0003606817147854
 16     0.0000351851104487
 17     0.0014747862757619
 18    -0.0029331950603658
 19     0.0000586219412952
 20     0.0000651747710418
 21    -0.0000911965303928
 22    -0.0001191522998995
 23    -0.0005037394660743
 24     0.0002590571781897
 25     0.0012177085580781
 26    -0.0007410711363127
 27    -0.0029311450692608
 28    -0.0000026175396357
 29     0.0000179246208861
 30     0.0000069283820981
 31     0.0000283049703006
 32     0.0002973589568483
 33     0.0074337955361331
 34    -0.0000533768590527
 35    -0.0000520009165116
 36     0.0031839475752844
 37    -0.0437304306834396
 38    -0.0001104389603150
 39     0.0000110516815571
 40     0.0316616640307256
 41    -0.0278793366851014
 42     0.0001019041271848
 43     0.0000111417262622
 44     0.0081842035391588
 45    -0.0406617710106467
 46     0.0000698646040018
 47     0.0000739981246335
 48    -0.0250942404561953
 49     0.0146537704901444
 50    -0.0000383545308834
 51     0.0000347676174154
 52    -0.0138598238276846
 53    -0.1415202850611848
 54     0.0388714836798624
 55    -0.0544168152857202
 56     0.0537469849849841
 57    -0.0168920953455663
 58    -0.0172271213128561
 59    -0.0156297359850378
 60    -0.0108716062089133
 61    -0.1415650474439362
 62    -0.0386793331589862
 63     0.0544586203577384
 64     0.0537623354635180
 65    -0.0168844884464523
 66     0.0170491797390245
 67     0.0156504662485287
 68    -0.0108796658664493
 69    -0.1990971542461803
 70     0.0230158911357359
 71    -0.0617626970649554
 72    -0.0585481954572096
 73    -0.0000460569250746
 74     0.0026733945489306
 75     0.0022096611541070
 76     0.0008796771604853
 77    -0.1991665845488658
 78    -0.0231579910225768
 79     0.0617528971110111
 80    -0.0585313290880607
 81    -0.0000320441522391
 82    -0.0026255608038146
 83    -0.0022194719835439
 84     0.0008721614837096
 85    -0.0942915509682159
 86     0.0301256487859173
 87    -0.0253034272806000
 88     0.0280008825182304
 89     0.0043211116303722
 90     0.0004873759112150
 91     0.0011359107558372
 92    -0.0022722269508467
 93    -0.0943253905517074
 94    -0.0300537126992574
 95     0.0253803424135857
 96     0.0280233126114601
 97     0.0043141421533804
 98    -0.0004754265305967
 99    -0.0011422272902428
 100    -0.0022677840626585
 101    -0.0413299542640586
 102    -0.0000539814924814
 103    -0.0000282499135875
 104     0.0068701534121444
 105     0.0008592726130083
 106    -0.0000277675833260
 107     0.0000233836689322
 108    -0.0003565062343938
 109     0.0056871498178767
 110     0.0000245003029471
 111    -0.0000017766877519
 112     0.0037781414097712
 113     0.0006648105259210
 114     0.0000495408448110
 115    -0.0000367410700751
 116    -0.0004956800848715
 117    -0.0134310490639860
 118    -0.0000049433468826
 119     0.0000276159884702
 120    -0.0104533126628810
 121    -0.0000092815532369
 122    -0.0000424781336410
 123     0.0000320475544554
 124    -0.0000706850651453
 125     0.1308001944189565
 126    -0.2719277332380427
 127     0.0025414137673220
 128    -0.0155033452504905
 129     0.1308596671056675
 130    -0.2720678524964490
 131     0.0025470346808131
 132    -0.0155180809784804
 133     0.2175395612935631
 134    -0.4691526339083122
 135    -0.0065651908682651
 136     0.0134773769691447
 137     0.2176585090847401
 138    -0.4694278257996055
 139    -0.0065600878007302
 140     0.0134670798044797
 141     0.0825537825653556
 142    -0.2065133629593580
 143    -0.0025049689546586
 144     0.0031334043616888
 145     0.0825922053381619
 146    -0.2066065123945049
 147    -0.0024960010251405
 148     0.0031276296417042
 149     0.0000077277858729
 150    -0.0000009958607557
 151    -0.0000103256738593
 152     0.0000019516576323
 153     0.0000428737174381
 154     0.0001547150985551
 155    -0.0000007816038352
 156    -0.0000002238773537
 157    -0.0001223925366822
 158    -0.0000034806951542
 159     0.0000018378110208
 160     0.0000055922148119
 161    -0.0000032059631130
 162    -0.0000070851654159
 163     0.0000208528854939
 164     0.0000257521320121
 165    -0.0000167357063565
 166     0.0000249829051955
 167     0.0000024102751991
 168    -0.0000031573614375
 169     0.0000011726053393
 170    -0.0000001949315612
 171    -0.0000088916163976
 172     0.0000236554830008
 173     0.0000024144523836
 174     0.0000297986721546
 175     0.0000573989932794
 176    -0.0000026365939320
 177     0.0000017765632966
 178    -0.0000017965833258
 179     0.0000028210915996
 180    -0.0000085847306709
 181     0.0000213450661876
 182    -0.0000232309657609
 183    -0.0000178037656786
 184     0.0000534177649395
 Sym= 123A
 Ene= 0.251305
 Spin= Alpha
 Occup= 2.000000
  1     0.0101215235228700
  2     0.0011211849631072
  3     0.0154184942887201
  4     0.0009692622624308
  5     0.0073257006955659
  6    -0.0015379293973952
  7    -0.0071731681719400
  8    -0.0075627202959893
  9     0.1432255882676357
 10     0.0110143146038569
 11     0.0007851432034995
 12     0.0081587749207750
 13     0.0016012238571847
 14    -0.0045056740111220
 15     0.0012014051629164
 16    -0.0144970464723915
 17    -0.0065213249858770
 18    -0.0857890284713085
 19     0.0043332915807208
 20     0.0011510778970136
 21     0.0108402379296765
 22     0.0013688345215585
 23    -0.0026717939777360
 24     0.0006203848329089
 25    -0.0110982568816693
 26    -0.0117902825139178
 27    -0.0572790616226921
 28    -0.0528419722787045
 29    -0.0075794915663171
 30    -0.0713632219061850
 31    -0.0102647598697478
 32    -0.0001883781929380
 33    -0.0005740740633260
 34     0.0053844346963393
 35     0.0057232895890505
 36     0.0000193479882295
 37    -0.0000600182738231
 38     0.1748602601323917
 39    -0.0164218300805788
 40     0.0000143218925180
 41    -0.0000282962914112
 42    -0.1267853397931681
 43    -0.0085785257088833
 44     0.0000118349240619
 45     0.0000332788301449
 46    -0.1659014429695185
 47    -0.1392660262877970
 48     0.0000017342891586
 49     0.0000098136095525
 50     0.0381151746255545
 51    -0.0420201234653135
 52    -0.0000085955455264
 53     0.0173764891123799
 54    -0.1323595972925008
 55    -0.0207301548058478
 56    -0.0105635160229711
 57    -0.0183062243776020
 58     0.1154777487649453
 59    -0.0148976322403552
 60     0.0043078041811162
 61    -0.0175129517501161
 62    -0.1323900397872357
 63    -0.0206615996084872
 64     0.0106526719748023
 65     0.0182342956290564
 66     0.1154985938708466
 67    -0.0148606870612123
 68    -0.0043565044300430
 69     0.0275606476234971
 70     0.1632448103160401
 71     0.1121651465311878
 72     0.0090408888834822
 73    -0.0078420674845677
 74    -0.0234003052979175
 75    -0.0090854481683904
 76    -0.0003494084077615
 77    -0.0276302112439943
 78     0.1632758169739367
 79     0.1121767957717413
 80    -0.0090552330721540
 81     0.0078069179265993
 82    -0.0234057221168305
 83    -0.0090764844626710
 84     0.0003616383006133
 85    -0.0001245443155160
 86    -0.2104820510905609
 87    -0.1548847753980314
 88    -0.0046570819847931
 89    -0.0065927701060639
 90    -0.0179793048409902
 91     0.0066992447650922
 92     0.0003944832047904
 93     0.0002969244384557
 94    -0.2104466122577310
 95    -0.1549523505398620
 96     0.0045757651501797
 97     0.0065930930241667
 98    -0.0179731231489124
 99     0.0066996735362090
 100    -0.0004090988488200
 101     0.0001049616052861
 102     0.3410566466856035
 103     0.2601690964876360
 104    -0.0000377537180707
 105    -0.0000078993929079
 106     0.0382687727206509
 107    -0.0368004041781778
 108     0.0000036777575645
 109    -0.0001378794822942
 110    -0.3803242598584930
 111    -0.2801376981927334
 112    -0.0000451344746728
 113     0.0000108750372567
 114    -0.0588834093560907
 115     0.0454653504283545
 116    -0.0000167192652088
 117     0.0003324154303122
 118     0.3024026084913028
 119     0.2236357660134344
 120    -0.0001277372145781
 121    -0.0000490130152162
 122     0.0486499657115073
 123    -0.0384629563042626
 124    -0.0000130104937964
 125     0.0055453264628786
 126    -0.0117675802167889
 127     0.0269151853626092
 128    -0.0509286532081801
 129    -0.0053750551394942
 130     0.0114264804361113
 131    -0.0268571198241230
 132     0.0508170160928826
 133    -0.0150897243167921
 134     0.0329551124812270
 135     0.0208201845964352
 136    -0.0491853152490400
 137     0.0151924805973108
 138    -0.0332063801696397
 139    -0.0208034789539837
 140     0.0491394218617910
 141    -0.0022456940599703
 142     0.0230082476357829
 143     0.0080786925087932
 144    -0.0121453557015994
 145     0.0019398736897024
 146    -0.0224416532908154
 147    -0.0080762286000969
 148     0.0121311559482265
 149    -0.0091428541506870
 150     0.0013098787403048
 151     0.0116058385872682
 152    -0.0016859503150286
 153     0.0000260232376913
 154     0.0000879347257277
 155     0.0008674389592936
 156    -0.0009481816640430
 157     0.0000025560825338
 158     0.0017035170291534
 159    -0.0001925688766011
 160    -0.0025195089245814
 161     0.0001549978552543
 162    -0.0012064291926284
 163     0.0002567335746205
 164    -0.0011435603057461
 165     0.0013165675478152
 166     0.0235517519134925
 167     0.0018855403313201
 168    -0.0001351648598922
 169    -0.0013229346448335
 170     0.0002596828888803
 171     0.0007721181902952
 172    -0.0002128612727043
 173    -0.0023338487005194
 174     0.0011111683979544
 175    -0.0146169765640865
 176     0.0007660217257997
 177    -0.0001979305689431
 178    -0.0017370583456980
 179     0.0002230904182063
 180     0.0004116893199173
 181    -0.0000902896309728
 182    -0.0018058452009724
 183     0.0019902468649187
 184    -0.0088984109473760
 Sym= 124A
 Ene= 0.255032
 Spin= Alpha
 Occup= 2.000000
  1    -0.0035613335827638
  2    -0.0005890265839660
  3    -0.0011817623838564
  4     0.0001183174173196
  5    -0.0012239251353390
  6     0.0001944575025554
  7    -0.0009919163398824
  8     0.0050834391189763
  9    -0.0214129428520918
 10    -0.0055201497141636
 11    -0.0003519343280396
 12     0.0000088118142617
 13    -0.0000104806311720
 14     0.0023865348909061
 15    -0.0002374524976708
 16     0.0000365670482684
 17     0.0034796003120984
 18     0.0434779743760595
 19    -0.0035540194387933
 20    -0.0005737642794072
 21     0.0011867067562533
 22    -0.0001437088961464
 23    -0.0012360266695962
 24    -0.0000975041432861
 25     0.0009897400472704
 26     0.0050670381021020
 27    -0.0221401561764929
 28     0.0249534248402408
 29     0.0038333171221040
 30     0.0010108026522268
 31    -0.0000492008289040
 32     0.0000978336456801
 33     0.0002877588635325
 34     0.0006321252923797
 35    -0.0048143253800533
 36    -0.0000066594247750
 37    -0.0000255339337452
 38    -0.0283267585432004
 39    -0.0330234110358022
 40     0.0000068659701577
 41    -0.0000291652407119
 42    -0.0218930656631018
 43    -0.0335109492936329
 44    -0.0000116311794417
 45    -0.0000029729254337
 46     0.0188025943008956
 47     0.0311022038805474
 48    -0.0000089428153610
 49    -0.0000204366057512
 50     0.0152724271443116
 51    -0.0460335930085955
 52     0.0000152782665324
 53    -0.0566937489859256
 54     0.0158362180341652
 55    -0.0426290351927105
 56     0.0146093990572004
 57    -0.1253497494768786
 58    -0.0157219496632977
 59    -0.0820977838670588
 60    -0.0261653768749613
 61     0.0565360476007979
 62     0.0158231971438915
 63    -0.0425764338224018
 64    -0.0145726754242843
 65     0.1251229249647050
 66    -0.0156918193322252
 67    -0.0820169113365047
 68     0.0261078845661510
 69     0.0105666056645303
 70    -0.0449225329180354
 71    -0.0213877623250453
 72    -0.0092423546643925
 73    -0.1025191007386522
 74    -0.0381621917124324
 75    -0.0563276394772159
 76     0.0282558195818023
 77    -0.0105865579454946
 78    -0.0448941823955636
 79    -0.0213622394105273
 80     0.0092260733278555
 81     0.1023525443434001
 82    -0.0381702836553354
 83    -0.0562557957860363
 84    -0.0281833660987043
 85     0.0672067216326149
 86     0.0102506651083284
 87     0.0760089027566731
 88     0.0014421774223772
 89    -0.0183494458970629
 90    -0.0097153526720121
 91    -0.0255481629970776
 92    -0.0129149076610383
 93    -0.0669543122981219
 94     0.0102647814629000
 95     0.0759735318023088
 96    -0.0014685933627947
 97     0.0183234258671800
 98    -0.0096825144287670
 99    -0.0255448078792412
 100     0.0129068492738265
 101    -0.0000322612197080
 102    -0.0782308788567590
 103    -0.0338811866311217
 104     0.0000112675580818
 105    -0.0000173817987057
 106    -0.0336613340082050
 107    -0.0094636479343642
 108    -0.0000003803324388
 109     0.0001091904982273
 110    -0.0048965918506257
 111     0.1489181830899848
 112     0.0000396116127592
 113     0.0000104128523162
 114     0.0304010397460674
 115    -0.0060851255454070
 116     0.0000007512293102
 117    -0.0001538430172137
 118    -0.0070463825262946
 119    -0.1022129444071110
 120     0.0000847066790841
 121     0.0000013057051076
 122    -0.0270177889597948
 123     0.0022516073164154
 124     0.0000004992747236
 125     0.0788717065792650
 126    -0.2015433216655934
 127     0.1537690622721634
 128    -0.3767881690877962
 129    -0.0787011521038160
 130     0.2011305507641426
 131    -0.1535423499005086
 132     0.3762816384346498
 133    -0.0198095588073102
 134     0.0590482218963488
 135     0.1142177606266250
 136    -0.2736869903889368
 137     0.0198517021497845
 138    -0.0590423263517795
 139    -0.1140693037615379
 140     0.2733613840258836
 141    -0.1269481994807150
 142     0.3006778656026737
 143     0.0220350427432734
 144    -0.0583509014812505
 145     0.1266296127721100
 146    -0.2999512814252174
 147    -0.0220266063915582
 148     0.0583150638664374
 149     0.0006678295109255
 150    -0.0001350800025565
 151    -0.0063073901567173
 152     0.0008797212164247
 153    -0.0000009942336117
 154    -0.0000054583113932
 155    -0.0006074843276962
 156     0.0002507421993645
 157    -0.0000008785525339
 158    -0.0003774785578067
 159     0.0000131833794787
 160     0.0011624653777794
 161    -0.0000964972632372
 162     0.0004928443259965
 163    -0.0000742836594491
 164     0.0008015454643237
 165     0.0000141364435140
 166    -0.0092857515794008
 167    -0.0001815162045948
 168     0.0000089371439117
 169     0.0006782815714110
 170    -0.0001492552081272
 171    -0.0000791466074471
 172    -0.0000173261131037
 173     0.0013098390694655
 174    -0.0001110148853768
 175     0.0014881718737256
 176     0.0001417798193454
 177     0.0000219182634775
 178     0.0010867466278346
 179    -0.0001061119497805
 180    -0.0004122183012756
 181     0.0000965453173328
 182     0.0008615606928532
 183    -0.0003404882674258
 184     0.0077928226849056
 Sym= 125A
 Ene= 0.258832
 Spin= Alpha
 Occup= 2.000000
  1     0.0000309939923467
  2     0.0000362590077416
  3     0.0000581489079825
  4     0.0000681891563410
  5    -0.0001405114171863
  6     0.0006502611785413
  7    -0.0005582363294057
  8    -0.0003177978858705
  9    -0.0007930699167113
 10    -0.0000834678662998
 11    -0.0000702855017352
 12    -0.0000117447726445
 13     0.0000007031761860
 14    -0.0001617830934914
 15     0.0006947431348809
 16    -0.0000880923110902
 17     0.0006766578510485
 18    -0.0005961738975307
 19     0.0000174291407359
 20     0.0000323644247063
 21    -0.0000581132096633
 22    -0.0000626176624665
 23    -0.0001785681000780
 24     0.0006445724865903
 25     0.0005131037073957
 26    -0.0003870159269377
 27    -0.0007551917216280
 28     0.0000663932021024
 29    -0.0000045062537788
 30     0.0000130529462375
 31    -0.0000694771991106
 32     0.0018270774289565
 33     0.0036351303986014
 34     0.0001498707379877
 35     0.0000119042013754
 36     0.0035222719470370
 37    -0.0333107347875646
 38     0.0000269617964081
 39     0.0000571389885177
 40     0.0183387608214851
 41    -0.0200577695294179
 42     0.0001012805863824
 43     0.0000449310889137
 44    -0.0023784844204571
 45     0.0012385196858562
 46     0.0000128496228543
 47     0.0000459496805269
 48    -0.0198409778945433
 49    -0.0052937819108230
 50    -0.0000488681307087
 51     0.0001234419435520
 52     0.0033111775369149
 53    -0.0971191641652406
 54     0.0078038459026899
 55    -0.0328072267433351
 56     0.0266480904313348
 57    -0.0670039716620873
 58    -0.0069301549045062
 59    -0.0253098821272659
 60    -0.0172275500250303
 61    -0.0969664178554184
 62    -0.0077788852252347
 63     0.0328598795252650
 64     0.0266429669113551
 65    -0.0675375593780295
 66     0.0069244819233631
 67     0.0256037512704338
 68    -0.0173265504196170
 69    -0.0163121957088348
 70    -0.0133149364374032
 71    -0.0121487188712443
 72    -0.0174740781163038
 73    -0.0328932560783013
 74     0.0011506202515109
 75    -0.0157932079595729
 76     0.0137702623468716
 77    -0.0161711051186028
 78     0.0131640108721940
 79     0.0120463046646585
 80    -0.0174161116461504
 81    -0.0334211925470817
 82    -0.0009500897288510
 83     0.0160665283627503
 84     0.0138966953755075
 85     0.1707097679035345
 86    -0.0179617933795192
 87     0.0354473912546213
 88    -0.0378890994249409
 89    -0.0014036918154859
 90    -0.0056231461924511
 91     0.0005006012009715
 92    -0.0033839013889525
 93     0.1704300836440448
 94     0.0180633731936180
 95    -0.0351039498405431
 96    -0.0379091108804726
 97    -0.0015211383586373
 98     0.0057188799599226
 99    -0.0003820873061191
 100    -0.0034460963601085
 101     0.0231389160221489
 102    -0.0002231888226836
 103    -0.0001165652283595
 104    -0.0392777754546698
 105    -0.0069510900061089
 106     0.0000427481783961
 107     0.0000576241940019
 108     0.0016968830044346
 109     0.0395764181361808
 110     0.0000887683689537
 111     0.0003989542236449
 112     0.0268655333352078
 113     0.0042475344361526
 114    -0.0000065801835637
 115    -0.0000133815226177
 116    -0.0028343380744924
 117     0.0130637090659185
 118    -0.0001390303211675
 119    -0.0002965421692244
 120     0.0131191511952997
 121    -0.0018881339305195
 122     0.0000122438496751
 123     0.0000226349701131
 124     0.0009540466204781
 125     0.1154710528628268
 126    -0.2618283199125495
 127     0.0544375287458848
 128    -0.1327715964520657
 129     0.1152908175539031
 130    -0.2614439538115848
 131     0.0551282482907275
 132    -0.1343375870577584
 133     0.0520211935911637
 134    -0.0619605079193223
 135     0.0259133263423169
 136    -0.0514581779136779
 137     0.0517722736799594
 138    -0.0614030366932235
 139     0.0265382708787700
 140    -0.0529544982166661
 141    -0.2448366188100386
 142     0.5229458941852162
 143    -0.0009052149856108
 144    -0.0005862558691168
 145    -0.2442213154016137
 146     0.5215829031389334
 147    -0.0007632884386149
 148    -0.0009737109839261
 149     0.0000044013940359
 150     0.0000020265678612
 151     0.0000024988667815
 152    -0.0000003127936490
 153     0.0003050315808591
 154     0.0019538666650994
 155    -0.0000004902846253
 156    -0.0000077379653541
 157    -0.0010389609209409
 158    -0.0000119147125166
 159     0.0000155099442074
 160     0.0000187772541292
 161    -0.0000280371239018
 162    -0.0001220980072602
 163     0.0001066269877121
 164     0.0002922822624805
 165    -0.0001855349187798
 166     0.0006640473886120
 167     0.0000223554932788
 168    -0.0000306235018357
 169    -0.0000002505346814
 170     0.0000000644813159
 171    -0.0001236801715792
 172     0.0001305315084818
 173    -0.0000004194077352
 174     0.0003560283502858
 175     0.0006672861891458
 176    -0.0000120448534112
 177     0.0000154989654112
 178    -0.0000195018748164
 179     0.0000281029419812
 180    -0.0001218395989722
 181     0.0001060584466684
 182    -0.0002927524170717
 183    -0.0001854326889100
 184     0.0006586564071123
 Sym= 126A
 Ene= 0.260263
 Spin= Alpha
 Occup= 2.000000
  1     0.0020037783724184
  2     0.0005716671103023
  3    -0.0029137627079337
  4    -0.0004732148356978
  5    -0.0006083385277738
  6    -0.0000428256436856
  7     0.0040609196427981
  8    -0.0052841763328773
  9    -0.0123095405881809
 10     0.0047257250964949
 11     0.0002629600529116
 12    -0.0023202520799400
 13    -0.0005512324860367
 14    -0.0021905807377240
 15    -0.0001121414302019
 16     0.0048990233067101
 17    -0.0032320670284268
 18    -0.0375249651684553
 19     0.0039277103987741
 20     0.0004656308684414
 21    -0.0050338578530361
 22    -0.0001809428196365
 23     0.0028604669410718
 24     0.0002792360354894
 25     0.0023391441196949
 26    -0.0039635745516166
 27     0.0498948742748136
 28    -0.0201957094238064
 29    -0.0032907603547106
 30     0.0199534668956668
 31     0.0031584656916929
 32    -0.0000814159441782
 33    -0.0002395846054512
 34    -0.0047569317843913
 35     0.0060240412335099
 36     0.0000128412657950
 37    -0.0000694134545316
 38    -0.0501716402758505
 39    -0.0094395143691222
 40     0.0000256368533888
 41    -0.0000651549984424
 42    -0.0135870048569867
 43    -0.0061989622426599
 44    -0.0000258812622978
 45     0.0000063317303531
 46     0.0479739087361782
 47     0.0160454823569388
 48    -0.0000380399709041
 49    -0.0000420607885617
 50     0.0114134191031296
 51    -0.0343293034998102
 52     0.0000299343938662
 53     0.0540742961081690
 54     0.0240988904054699
 55     0.0115222392440480
 56    -0.0038218499120971
 57    -0.0762117562520835
 58    -0.0205335523071295
 59    -0.0362235474896914
 60    -0.0141891823351751
 61    -0.0544895741182810
 62     0.0240733430607742
 63     0.0116690045374095
 64     0.0039241083068605
 65     0.0757072375720081
 66    -0.0204779345295485
 67    -0.0360440678892472
 68     0.0140504699691074
 69     0.0225073997422082
 70    -0.0085427496074883
 71    -0.0113716383527705
 72     0.0137592953108594
 73    -0.0864495084420829
 74    -0.0305946311142215
 75    -0.0401623260525724
 76     0.0207802148154473
 77    -0.0225171349756709
 78    -0.0084961957199344
 79    -0.0113281555273253
 80    -0.0138435903580279
 81     0.0860960494953100
 82    -0.0305940617122020
 83    -0.0400090598462112
 84    -0.0206401438307018
 85    -0.0938995930660809
 86     0.0542473084431590
 87    -0.0484906629134933
 88    -0.0022649931658133
 89    -0.0196820872874466
 90    -0.0120591793713170
 91    -0.0231598167166733
 92    -0.0098885198254876
 93     0.0945171482539216
 94     0.0543233645009852
 95    -0.0486401325103367
 96     0.0021067219112867
 97     0.0196251361008215
 98    -0.0119977252075093
 99    -0.0231508920217100
 100     0.0098600984289904
 101     0.0000854852353557
 102    -0.0003592770942238
 103    -0.0334399449670419
 104    -0.0001260177009875
 105    -0.0000358892974803
 106    -0.0218054008620841
 107    -0.0116452543708349
 108     0.0000060057061941
 109    -0.0000017688371666
 110     0.1265293757523409
 111    -0.1327400545970752
 112     0.0000353304707052
 113     0.0000175789910294
 114     0.0098296807506746
 115    -0.0076964397490928
 116    -0.0000090991349160
 117     0.0001661768853776
 118    -0.0808491587333473
 119     0.0802092359428698
 120    -0.0000464380160361
 121    -0.0000037960193844
 122    -0.0102388383005859
 123     0.0030548274931512
 124     0.0000069795792158
 125    -0.0774820893863093
 126     0.1780594153355506
 127     0.1017130716245844
 128    -0.2232235439792336
 129     0.0779401694145195
 130    -0.1791387066309624
 131    -0.1012278294533162
 132     0.2221249130322677
 133    -0.0488001087552713
 134     0.1016883948347871
 135     0.1023313370619848
 136    -0.2460075483072637
 137     0.0489265683190433
 138    -0.1017758377075754
 139    -0.1020093741786283
 140     0.2453271233971193
 141     0.1994116033685452
 142    -0.4521717727458719
 143     0.0236922199928119
 144    -0.0676089228987940
 145    -0.2003115474716803
 146     0.4540701378798944
 147    -0.0236700046077677
 148     0.0675243115435955
 149     0.0008820124170247
 150    -0.0001726510451452
 151    -0.0022974146296052
 152     0.0002954183970691
 153    -0.0000017359713170
 154    -0.0000016489751105
 155    -0.0002494382729039
 156     0.0003820393880440
 157    -0.0000046473516117
 158    -0.0002438723769899
 159     0.0000220016910877
 160     0.0004392008171111
 161    -0.0000283609346205
 162     0.0002228809935777
 163    -0.0000166754571096
 164     0.0002708574601168
 165    -0.0001695280097839
 166    -0.0038681233401801
 167    -0.0002360869624722
 168     0.0000108785693202
 169     0.0002235166634790
 170    -0.0000576994959983
 171    -0.0001107599658509
 172    -0.0000269348995843
 173     0.0004878011112487
 174    -0.0001572471115221
 175     0.0019260282961374
 176    -0.0000538694436134
 177     0.0000273536825652
 178     0.0003346124904575
 179    -0.0000435714887460
 180    -0.0001111798930877
 181     0.0000510261514876
 182     0.0003512549084890
 183    -0.0002882862143086
 184     0.0019461004721436
 Sym= 127A
 Ene= 0.266163
 Spin= Alpha
 Occup= 2.000000
  1     0.0000061676633907
  2     0.0000081246024293
  3     0.0000061354747772
  4     0.0000140634271640
  5    -0.0000311375603589
  6     0.0001416731429720
  7    -0.0001267788855177
  8    -0.0000754971371847
  9    -0.0001708481962115
 10    -0.0000080041680787
 11    -0.0000140740613683
 12    -0.0000052386395244
 13    -0.0000000263445589
 14    -0.0000406580108631
 15     0.0001511512644358
 16    -0.0000261181469146
 17     0.0001517528277614
 18    -0.0001538576328003
 19     0.0000028747148308
 20     0.0000068565833367
 21    -0.0000108844013239
 22    -0.0000126723580738
 23    -0.0000415810195588
 24     0.0001403911131675
 25     0.0001154359042810
 26    -0.0000971880135856
 27    -0.0001209018435456
 28    -0.0000020223619744
 29    -0.0000059529740205
 30     0.0000163946009168
 31    -0.0000210865053019
 32     0.0004691813486759
 33     0.0008420534735961
 34     0.0000465753312513
 35     0.0000122892694616
 36     0.0007908296733761
 37     0.0162845372812784
 38    -0.0000475990723889
 39    -0.0000172769027543
 40     0.0167506894526044
 41     0.0330174641360994
 42     0.0000042785354053
 43    -0.0000166700913205
 44     0.0291244636662735
 45    -0.0127848172043492
 46     0.0000429778601922
 47     0.0000279698725777
 48    -0.0180971316645799
 49     0.0499011616639321
 50     0.0000184365929462
 51    -0.0000433325371210
 52    -0.0361674601020257
 53     0.0202658121223318
 54    -0.0013158602167464
 55     0.0133890469115006
 56    -0.0059874457763391
 57     0.1793868496734048
 58     0.0208558031669374
 59     0.0557460129002297
 60     0.0556752449068094
 61     0.0202397059479369
 62     0.0013770929831146
 63    -0.0134073247322931
 64    -0.0059941808081468
 65     0.1795730775177808
 66    -0.0209012443606573
 67    -0.0558462143557639
 68     0.0557229191077663
 69    -0.0195619218543030
 70     0.0029352054020601
 71    -0.0016262809220498
 72    -0.0045656252152939
 73     0.1597664492230756
 74     0.0085421228088519
 75     0.0674889940671248
 76    -0.0562859615183785
 77    -0.0195918420376394
 78    -0.0029849994353266
 79     0.0015904166528822
 80    -0.0045758966920967
 81     0.1599538247220047
 82    -0.0086240925542329
 83    -0.0675766422682209
 84    -0.0563167054280562
 85     0.0463589930951134
 86    -0.0060841071449433
 87     0.0074530669454272
 88    -0.0152282895115416
 89     0.0366482819146064
 90     0.0257845886206269
 91     0.0082473781703968
 92     0.0141486629765091
 93     0.0464421026031795
 94     0.0061855675737916
 95    -0.0074503450955164
 96    -0.0152305323489520
 97     0.0366926221489132
 98    -0.0257908432552160
 99    -0.0083056928876634
 100     0.0141770556300620
 101     0.0087436638116397
 102    -0.0000461381039913
 103    -0.0000481156525208
 104    -0.0132115834375757
 105     0.0336478506737040
 106    -0.0000345097727395
 107    -0.0000053949162104
 108    -0.0038953316919853
 109     0.0124151878388964
 110     0.0001168958372389
 111    -0.0000201873256500
 112     0.0084142763805274
 113    -0.0144842619458468
 114     0.0000194640855472
 115     0.0000048419617918
 116     0.0092991385506750
 117     0.0047442347587468
 118    -0.0000955289796014
 119    -0.0000024709056690
 120     0.0043252683491147
 121     0.0098833308871299
 122    -0.0000132857857067
 123    -0.0000223103133829
 124    -0.0054884158051613
 125     0.0005045625349794
 126     0.0274868025297458
 127    -0.1990685537097111
 128     0.4247824035028636
 129     0.0005491958163525
 130     0.0274009929447799
 131    -0.1993046936268865
 132     0.4253316888865016
 133     0.0581204429664032
 134    -0.1162234319976497
 135    -0.1598664265657774
 136     0.3365849530563278
 137     0.0581931797343845
 138    -0.1163863586928351
 139    -0.1600813617483001
 140     0.3370914173176138
 141    -0.0834791403630038
 142     0.1721945204711190
 143    -0.0193154130284509
 144     0.0576802878507195
 145    -0.0836691812522447
 146     0.1726182089043744
 147    -0.0193725713714857
 148     0.0578385088469302
 149    -0.0000017843643855
 150    -0.0000120781014040
 151    -0.0000045278657944
 152     0.0000079489775188
 153    -0.0012427107992694
 154    -0.0085110660160172
 155    -0.0000132828749640
 156     0.0000390355753178
 157     0.0041010902388302
 158     0.0000328553057248
 159    -0.0000602564111887
 160    -0.0000523736189610
 161     0.0001095809052986
 162     0.0005479366506428
 163    -0.0003177984874467
 164    -0.0012427999815370
 165     0.0007844015031634
 166    -0.0029353052363216
 167    -0.0000670083236652
 168     0.0001203988422970
 169    -0.0000003668877704
 170    -0.0000002921240896
 171     0.0005498087644677
 172    -0.0004177353745888
 173     0.0000093813887248
 174    -0.0015112716576057
 175    -0.0029210399308857
 176     0.0000344492808694
 177    -0.0000605017779602
 178     0.0000543974646221
 179    -0.0001102139092954
 180     0.0005435878655727
 181    -0.0003165724792291
 182     0.0012485670255341
 183     0.0007778398775040
 184    -0.0029228322804243
 Sym= 128A
 Ene= 0.277387
 Spin= Alpha
 Occup= 2.000000
  1    -0.0001767896392958
  2    -0.0000230699992727
  3    -0.0002462990063083
  4    -0.0000050737552412
  5    -0.0001615609095077
  6    -0.0000238684006597
  7     0.0001524660054486
  8     0.0002198858450456
  9    -0.0023234530578996
 10    -0.0002135779868316
 11    -0.0000097760695435
 12    -0.0000979848960029
 13    -0.0000353728682442
 14     0.0001170732735343
 15     0.0000105202931661
 16     0.0002891741058966
 17     0.0001849912316145
 18     0.0016538915392991
 19    -0.0000679508698051
 20    -0.0000339070231072
 21    -0.0001369934473275
 22    -0.0000267248899898
 23     0.0000412668370077
 24     0.0000082705461727
 25     0.0002343179321789
 26     0.0002792431101148
 27     0.0006644456609670
 28     0.0009620185825638
 29     0.0001402734007874
 30     0.0010352592397114
 31     0.0001469303202925
 32     0.0000043053511038
 33     0.0000131569198337
 34    -0.0003653453720694
 35    -0.0003988272714484
 36     0.0000003365672804
 37     0.0000042997058571
 38    -0.0495719277054283
 39     0.0030595825529411
 40     0.0000095252338372
 41     0.0000364831012958
 42     0.1318393690131225
 43     0.0147263690156203
 44     0.0000126815974163
 45    -0.0000021931605939
 46     0.0147206916295120
 47     0.0155690933021844
 48    -0.0000013957808085
 49    -0.0000365930213251
 50    -0.1918847363253697
 51     0.1553448930314077
 52     0.0000097981594671
 53     0.0009801117807091
 54     0.0543841777535237
 55     0.0010544899701942
 56     0.0079998475181473
 57    -0.0241271167425329
 58    -0.0793156460770212
 59     0.0187312829995928
 60    -0.0119446608926693
 61    -0.0009598783632668
 62     0.0543815700947701
 63     0.0010488090678928
 64    -0.0080035148724572
 65     0.0241381667428057
 66    -0.0793146258754266
 67     0.0187099673700283
 68     0.0119753395138819
 69    -0.0073558468707984
 70    -0.0112982558946081
 71    -0.0045503248237575
 72    -0.0026265515638543
 73    -0.0219537657164856
 74     0.1987243279268625
 75    -0.1436517428759630
 76     0.0082534260266458
 77     0.0073456248630634
 78    -0.0113006300602981
 79    -0.0045502386965332
 80     0.0026231604953336
 81     0.0219388013335475
 82     0.1987564985005458
 83    -0.1436387660001557
 84    -0.0081926646694365
 85     0.0014601862292861
 86     0.0068171341331487
 87     0.0053043206772876
 88     0.0013437758747379
 89     0.0030272079059185
 90    -0.2510584257992949
 91     0.1895912618530828
 92    -0.0036407935142951
 93    -0.0014524858695566
 94     0.0068177590545137
 95     0.0053047836590750
 96    -0.0013465500226669
 97    -0.0031487609872067
 98    -0.2510473946251645
 99     0.1896278189567090
 100     0.0035539550657903
 101    -0.0000010949417912
 102    -0.0083908330558291
 103    -0.0061234579933210
 104    -0.0000012392040845
 105    -0.0000414546484142
 106     0.3773116425936394
 107    -0.2869204828792380
 108     0.0000407294741849
 109     0.0000049980329254
 110     0.0061792849137738
 111     0.0057974826973939
 112     0.0000020794475520
 113     0.0000389659495457
 114    -0.3589135767651341
 115     0.2726238851278388
 116    -0.0000810519580859
 117    -0.0000070458482879
 118    -0.0044854008046744
 119    -0.0041014495583257
 120     0.0000037479396786
 121    -0.0003151198990060
 122     0.2681537784513272
 123    -0.2032615261163117
 124    -0.0001050110898976
 125    -0.0027018601640706
 126    -0.0113886241608123
 127    -0.0005218952476623
 128    -0.0031426101908932
 129     0.0026864147398099
 130     0.0114076013337279
 131     0.0004746469197439
 132     0.0032226775785760
 133     0.0032607066595289
 134    -0.0080022697048964
 135     0.0118975012851355
 136    -0.0225907817659303
 137    -0.0032347133288321
 138     0.0079502305833311
 139    -0.0118686265742822
 140     0.0225424354881211
 141    -0.0022451920968091
 142     0.0004934069130922
 143    -0.0032868249762811
 144    -0.0053097783347496
 145     0.0022260198807049
 146    -0.0004534657169356
 147     0.0034360330901291
 148     0.0050192997178658
 149    -0.0476356837302680
 150     0.0068558566063087
 151     0.0626159061773956
 152    -0.0090048053445326
 153     0.0001686918162788
 154     0.0005590306807499
 155     0.0223507256884376
 156    -0.0189855949679653
 157    -0.0000021767675627
 158     0.0092250665147741
 159    -0.0010593245593027
 160    -0.0142448295007057
 161     0.0004325475186138
 162    -0.0090490754284340
 163    -0.0013309477235549
 164    -0.0097168758658887
 165     0.0103317406006360
 166     0.1303631338948232
 167     0.0103742017518621
 168    -0.0004836989509269
 169    -0.0059247566263011
 170     0.0021424129241925
 171     0.0056851315175024
 172     0.0003947771742695
 173    -0.0174060709030943
 174     0.0089517313532242
 175    -0.0798463866554726
 176     0.0026396906210692
 177    -0.0017240981373143
 178    -0.0089412516015560
 179     0.0014805319245601
 180     0.0032250471325867
 181     0.0006927184359530
 182    -0.0136242225621364
 183     0.0138607466624564
 184    -0.0502463199677025
 Sym= 129A
 Ene= 0.283495
 Spin= Alpha
 Occup= 2.000000
  1    -0.0003984665750767
  2    -0.0002169653989098
  3     0.0007363477461351
  4     0.0001576503230860
  5     0.0002258292262103
  6     0.0000981206801618
  7    -0.0014179127346689
  8     0.0017630043094967
  9     0.0035237029758047
 10    -0.0012907324604050
 11    -0.0000398993096354
 12     0.0005275531730691
 13     0.0002084236683701
 14     0.0007549675349825
 15     0.0002284954566112
 16    -0.0017121409015562
 17     0.0011919710615213
 18     0.0102760785872646
 19    -0.0010386717394799
 20    -0.0001325040605487
 21     0.0014209070369720
 22     0.0000018580652810
 23    -0.0009998445745263
 24    -0.0003575441211434
 25    -0.0009171854719358
 26     0.0014154890289043
 27    -0.0138294672214781
 28     0.0049767838267361
 29     0.0008715655245037
 30    -0.0051169783643066
 31    -0.0008532378592714
 32     0.0000268218420918
 33     0.0000789461293878
 34     0.0028784187591938
 35    -0.0032862301350318
 36     0.0000025147696667
 37    -0.0000616542452964
 38     0.0122855460931330
 39     0.0047286409778752
 40     0.0000374377818815
 41    -0.0000243300028565
 42     0.0005314244636112
 43     0.0022841342588991
 44    -0.0000110475646988
 45     0.0000567978224117
 46     0.0098345683296439
 47     0.0151927527865137
 48     0.0000389915906845
 49    -0.0000119628838309
 50    -0.0255760948394343
 51    -0.0114513539880153
 52    -0.0000144780984057
 53     0.0510713759667567
 54     0.0230255309168155
 55     0.0210272427597240
 56     0.0088516491693078
 57     0.0437883103176578
 58    -0.0249111013533967
 59     0.0153499128124355
 60    -0.0093295481149706
 61    -0.0508153706431280
 62     0.0229271911624270
 63     0.0210314352013592
 64    -0.0088635924992167
 65    -0.0436588871845637
 66    -0.0248229241479370
 67     0.0153520851178462
 68     0.0093297821068798
 69    -0.0369930760493925
 70     0.0097712180852118
 71     0.0087228354991847
 72     0.0044250833468119
 73    -0.0599983008216404
 74    -0.0325048574128915
 75    -0.0226425426750625
 76    -0.0022776791366327
 77     0.0368345650867208
 78     0.0097260926577750
 79     0.0086426948321279
 80    -0.0044049597401094
 81     0.0596872715721618
 82    -0.0324192473820350
 83    -0.0226097492469081
 84     0.0023375033338277
 85     0.0183399071688578
 86    -0.0140051246122843
 87     0.0054185366260139
 88    -0.0049147759382411
 89    -0.0904948627536927
 90    -0.0348955964695796
 91    -0.0649253069326309
 92    -0.0027680306481791
 93    -0.0182562376206554
 94    -0.0139752560425148
 95     0.0054265352288343
 96     0.0049008456767168
 97     0.0900115081374909
 98    -0.0348299862960528
 99    -0.0648167792766412
 100     0.0026683930474046
 101     0.0000099695302773
 102     0.0006187696798964
 103     0.0132849762975762
 104     0.0000092296434992
 105    -0.0000225614988051
 106    -0.0312113899784486
 107    -0.0153147732370070
 108    -0.0000130634220498
 109     0.0000387563319150
 110    -0.0363151417168451
 111     0.0369549697480218
 112     0.0000148538637718
 113    -0.0000754953743308
 114    -0.0605705291898316
 115    -0.1021496445048570
 116     0.0000266824875779
 117    -0.0000402562991167
 118     0.0202998000780336
 119    -0.0190192061653628
 120     0.0000278018035982
 121     0.0000851219939411
 122     0.0317882237343626
 123     0.0579913677410716
 124     0.0000752918926741
 125    -0.1016521295819322
 126     0.2677733787367129
 127    -0.0677943573185220
 128     0.1934346718873562
 129     0.1012770530776261
 130    -0.2668066735692217
 131     0.0676276800529400
 132    -0.1928761166649633
 133     0.1119118651262434
 134    -0.2673481190319799
 135     0.0963012757705793
 136    -0.2410226605718182
 137    -0.1115241780695739
 138     0.2664543979033582
 139    -0.0959483222202764
 140     0.2401110918776237
 141    -0.0790973336806046
 142     0.1491715895808374
 143     0.1482058264910146
 144    -0.3671086473473291
 145     0.0788607834617888
 146    -0.1487676551489136
 147    -0.1476644395259251
 148     0.3658266537507930
 149     0.0146801649694062
 150    -0.0024259496923316
 151     0.0082429845283945
 152    -0.0014209643298138
 153    -0.0000646288445669
 154    -0.0001849490786471
 155     0.0048408512828646
 156     0.0087166063713508
 157    -0.0000021200773854
 158    -0.0014772497833595
 159     0.0005650112961346
 160    -0.0008114425487749
 161     0.0003434020896978
 162     0.0000682774212476
 163    -0.0001002467945296
 164    -0.0025919605949143
 165    -0.0047097980279194
 166     0.0000452031595185
 167    -0.0036006706355256
 168     0.0001216851014477
 169    -0.0008642186228257
 170     0.0003396240510178
 171    -0.0021001428180979
 172    -0.0005128629533939
 173    -0.0027864179065102
 174    -0.0033169305628057
 175     0.0283280041079290
 176    -0.0025247869850196
 177     0.0004239063896420
 178    -0.0027212270136040
 179    -0.0000862746354679
 180     0.0020774374359635
 181     0.0006975089662725
 182    -0.0012201858076693
 183    -0.0041414912188321
 184    -0.0284371986836014
 Sym= 130A
 Ene= 0.285810
 Spin= Alpha
 Occup= 2.000000
  1    -0.0000067106607408
  2    -0.0000048472800796
  3    -0.0000149419225200
  4    -0.0000094307012046
  5     0.0000464877761689
  6    -0.0000387332549076
  7     0.0000829599990252
  8     0.0000546625521898
  9     0.0002485296106057
 10     0.0000200907189353
 11     0.0000114536950447
 12    -0.0000035798548463
 13     0.0000002510855705
 14     0.0000382930790893
 15    -0.0000480684016413
 16    -0.0000210945714525
 17    -0.0001054532823318
 18     0.0002368064889490
 19    -0.0000095838005234
 20    -0.0000056182834665
 21     0.0000127725355498
 22     0.0000104934349443
 23     0.0000377928552674
 24    -0.0000392162732019
 25    -0.0000936766992902
 26     0.0000385257471308
 27     0.0002751360588462
 28    -0.0000065266195926
 29    -0.0000070373618485
 30     0.0000095403864773
 31    -0.0000164516226036
 32    -0.0000617395969116
 33    -0.0007112991650520
 34     0.0000374025316993
 35     0.0000197018472245
 36    -0.0004361444808365
 37    -0.0371731969812944
 38    -0.0000204290718498
 39    -0.0000082348055559
 40     0.0250774067767108
 41    -0.0150927537463517
 42    -0.0000252085472805
 43    -0.0000084190567608
 44    -0.0078093487990003
 45     0.0369020627073517
 46    -0.0000067085074753
 47    -0.0000183081075871
 48     0.0255949521049783
 49    -0.0076541999089887
 50     0.0000864071423054
 51    -0.0000140198775948
 52    -0.0090036188838715
 53     0.0821574673642738
 54     0.0274021613400062
 55     0.0005176758006150
 56    -0.0036129707613934
 57     0.0351483822302399
 58    -0.0255450750395571
 59     0.0002399264354965
 60    -0.0020193616547491
 61     0.0823616748634255
 62    -0.0274887359554724
 63    -0.0005968695620476
 64    -0.0035778012067548
 65     0.0352744614553608
 66     0.0256577104267097
 67    -0.0003013596641066
 68    -0.0020648742579744
 69    -0.0458018709271993
 70     0.0082903342398721
 71     0.0228062968458442
 72     0.0024371437666013
 73    -0.0905287767111260
 74    -0.0215710424344676
 75    -0.0112794516349042
 76     0.0132574086549074
 77    -0.0459268325928894
 78    -0.0083261076973537
 79    -0.0228345655672445
 80     0.0024425780939279
 81    -0.0907470822345388
 82     0.0215767317818362
 83     0.0114411771023860
 84     0.0132538889381653
 85     0.0249713710138290
 86    -0.0091620506420622
 87     0.0002105983989439
 88    -0.0063272229263311
 89    -0.1285923970751711
 90    -0.0193185291215823
 91    -0.0317440999338669
 92    -0.0309591546831386
 93     0.0250300168874629
 94     0.0092245317118543
 95    -0.0002188553304951
 96    -0.0063509781242480
 97    -0.1288906954974312
 98     0.0195783187466979
 99     0.0318495079303689
 100    -0.0309755673346726
 101     0.0170276438116568
 102    -0.0000150723054928
 103    -0.0000343560073955
 104    -0.0063688126035150
 105    -0.0271429806077430
 106    -0.0000578190263666
 107     0.0001095898769688
 108    -0.0232019268089147
 109     0.0078404713886141
 110     0.0000863310760107
 111    -0.0000486653151495
 112     0.0055980813265391
 113    -0.0162606376639996
 114     0.0002240638465094
 115     0.0000808140598443
 116     0.0117404075135352
 117     0.0052243905362755
 118    -0.0000634999504615
 119     0.0000137892488277
 120     0.0034537826813167
 121    -0.0129205266459677
 122    -0.0001745616903015
 123    -0.0000123697307068
 124     0.0103680170210137
 125    -0.1199420946787203
 126     0.3048655819246197
 127    -0.0406091374245072
 128     0.1449379999939940
 129    -0.1203267137604916
 130     0.3058547349871205
 131    -0.0408153083598719
 132     0.1455376955134702
 133     0.1132331960168714
 134    -0.2710210375040945
 135     0.1004794243707165
 136    -0.2553852955132351
 137     0.1136213194641970
 138    -0.2719672511489760
 139     0.1008153896496392
 140    -0.2562243268537505
 141    -0.0761683384323995
 142     0.1268929229038474
 143     0.1478721451268740
 144    -0.3447394706849958
 145    -0.0764485119370290
 146     0.1274257171472813
 147     0.1483639730248846
 148    -0.3459630901519380
 149    -0.0000102062082074
 150     0.0000169375226130
 151    -0.0000285460115855
 152    -0.0000411408632368
 153    -0.0003287629194592
 154     0.0022705041080444
 155     0.0000835173267731
 156    -0.0000460993694236
 157    -0.0000017310814462
 158     0.0000141923337392
 159     0.0000071440195400
 160    -0.0000180686321254
 161    -0.0000150734480736
 162    -0.0002011773405581
 163    -0.0002246631444091
 164     0.0003269678567601
 165    -0.0002076766820748
 166     0.0010356608182130
 167    -0.0000167891321168
 168    -0.0000182850886748
 169     0.0000087176108720
 170     0.0000003697112666
 171    -0.0001838689337148
 172    -0.0001981961114803
 173    -0.0000466486853989
 174     0.0004016542631318
 175     0.0010340174676264
 176     0.0000083167267404
 177     0.0000089669413171
 178     0.0000252925060964
 179     0.0000172959057825
 180    -0.0001822752887694
 181    -0.0002243430512045
 182    -0.0003493314541167
 183    -0.0001711060356634
 184     0.0011150670255041
 Sym= 131A
 Ene= 0.293227
 Spin= Alpha
 Occup= 2.000000
  1     0.0002128239427879
  2     0.0001663470690439
  3    -0.0005421991546732
  4    -0.0001183233961840
  5    -0.0002060150535019
  6    -0.0000995926140729
  7     0.0011109029615685
  8    -0.0012829423459735
  9    -0.0029054709664014
 10     0.0008721974052502
 11     0.0000167027122800
 12    -0.0003562747868525
 13    -0.0001706720528981
 14    -0.0005522003627878
 15    -0.0002086612952209
 16     0.0013627795743549
 17    -0.0008894729380621
 18    -0.0069862587584203
 19     0.0007128203257219
 20     0.0000875579856369
 21    -0.0010314946225685
 22     0.0000087303749778
 23     0.0007697514106969
 24     0.0003305724901472
 25     0.0007709244711496
 26    -0.0010413613688479
 27     0.0099048518809787
 28    -0.0031468298003737
 29    -0.0005849301863642
 30     0.0036201841312230
 31     0.0006219570061687
 32    -0.0000169177912672
 33    -0.0000457925464370
 34    -0.0025728170422098
 35     0.0026964298442507
 36     0.0000035090601131
 37     0.0002613453906987
 38    -0.0197082681413193
 39     0.0020883874518556
 40    -0.0001649709619444
 41     0.0001605292980103
 42     0.0143449719416266
 43     0.0007058180974690
 44     0.0000981739036772
 45    -0.0003081967918410
 46    -0.0165807095938192
 47    -0.0183205460837782
 48    -0.0002223560820311
 49     0.0000038503827510
 50    -0.0239617467907433
 51    -0.0012006668243962
 52    -0.0001084886854387
 53    -0.0598208715457929
 54    -0.0120782561891622
 55    -0.0105721507589311
 56    -0.0072755606715305
 57     0.0287174625364384
 58     0.0031035118116804
 59     0.0025377419441387
 60     0.0124253351225176
 61     0.0588220558230465
 62    -0.0117819341775243
 63    -0.0106603646719541
 64     0.0073686053006200
 65    -0.0283297405419296
 66     0.0029395189614773
 67     0.0024281450063849
 68    -0.0123182880475213
 69     0.0282515708667296
 70    -0.0106436388057181
 71    -0.0122867153312591
 72    -0.0095377873439165
 73     0.0164821552772459
 74    -0.0073232220914414
 75    -0.0040275832495892
 76    -0.0108956576276313
 77    -0.0277249910148079
 78    -0.0105178008357251
 79    -0.0118935510550932
 80     0.0094409738568837
 81    -0.0164014594443094
 82    -0.0071766664189856
 83    -0.0040928411324446
 84     0.0107827315274790
 85    -0.0084319923872642
 86     0.0117461401327228
 87    -0.0007495764797723
 88     0.0077745902024876
 89    -0.0886107159060754
 90    -0.0345873593273325
 91    -0.0501407182271834
 92    -0.0003623170180321
 93     0.0082095380284844
 94     0.0116153169339301
 95    -0.0007690216369678
 96    -0.0077275185138093
 97     0.0866689373528019
 98    -0.0343709137194079
 99    -0.0497566323062228
 100    -0.0000777982704571
 101    -0.0001124185971966
 102    -0.0007452357063630
 103    -0.0136836281954393
 104     0.0000081596301691
 105    -0.0001234546395200
 106    -0.0155970690034650
 107    -0.0154781442867787
 108    -0.0001763467040409
 109    -0.0000475645385679
 110     0.0267324427968585
 111    -0.0248530433805555
 112    -0.0000264811013044
 113    -0.0002703923896739
 114    -0.0806375444446375
 115    -0.1097585159624076
 116     0.0001518802812694
 117    -0.0000000383532470
 118    -0.0141313736291121
 119     0.0115229298298653
 120    -0.0000356937596821
 121     0.0000464714308618
 122     0.0433014839443970
 123     0.0592982640471042
 124     0.0001440414931347
 125     0.1490864463943911
 126    -0.3463085360906347
 127    -0.0754989603405357
 128     0.1410552428877810
 129    -0.1470932730812391
 130     0.3416632059541400
 131     0.0743725224572456
 132    -0.1391881749124846
 133    -0.1121920288651185
 134     0.2717830057380688
 135    -0.0366419124034720
 136     0.0732853285438989
 137     0.1107799590903427
 138    -0.2683160069560537
 139     0.0360476250796557
 140    -0.0724691525269394
 141     0.0654357070184489
 142    -0.1166978065580691
 143     0.1761953138733131
 144    -0.4038265965996805
 145    -0.0645937030628137
 146     0.1153954104734084
 147    -0.1734089593113963
 148     0.3977927830346236
 149     0.0152024891566897
 150    -0.0025764681451316
 151     0.0110810586917640
 152    -0.0018858076793348
 153    -0.0000831177367297
 154    -0.0002351615376158
 155     0.0076669940379235
 156     0.0112380219714090
 157     0.0000167142355436
 158    -0.0013003601392200
 159     0.0006920976954523
 160    -0.0012808273753393
 161     0.0004455049719556
 162    -0.0002197147780721
 163    -0.0002180342884453
 164    -0.0035690173360072
 165    -0.0054994642377211
 166     0.0038828699593265
 167    -0.0038743708739255
 168     0.0000911217224298
 169    -0.0010711115760772
 170     0.0005156429807908
 171    -0.0024363611768786
 172    -0.0007303572062401
 173    -0.0040846154626024
 174    -0.0039581398660663
 175     0.0305138152501470
 176    -0.0028043975637276
 177     0.0004562826468771
 178    -0.0034527785372108
 179    -0.0001134084428746
 180     0.0027113026235498
 181     0.0010314358382320
 182    -0.0020750480613942
 183    -0.0047905227423223
 184    -0.0344931548073251
 Sym= 132A
 Ene= 0.293730
 Spin= Alpha
 Occup= 2.000000
  1     0.0000063093504921
  2     0.0000105103304093
  3     0.0000171914700187
  4     0.0000215091640191
  5    -0.0001126136924804
  6     0.0000900194181206
  7    -0.0002408998443601
  8    -0.0001426165799093
  9    -0.0005701510360868
 10    -0.0000242103818796
 11    -0.0000239722263086
 12     0.0000043679165945
 13     0.0000006106945536
 14    -0.0001052697278721
 15     0.0001122720356417
 16     0.0000088523087340
 17     0.0002924464750035
 18    -0.0005374976564244
 19     0.0000059504263571
 20     0.0000114212349974
 21    -0.0000078680128465
 22    -0.0000217183132539
 23    -0.0001110238411134
 24     0.0000880317225943
 25     0.0002397171020666
 26    -0.0001321393090627
 27    -0.0006526065876142
 28     0.0000203235337888
 29     0.0000094903925429
 30    -0.0000249877839571
 31     0.0000089731725791
 32     0.0003971164178929
 33     0.0018707302034589
 34    -0.0000149318455372
 35    -0.0000349434703624
 36     0.0010754149251559
 37     0.0369039933967550
 38     0.0001500323653957
 39    -0.0000170109075805
 40    -0.0241652578371493
 41     0.0215316887798304
 42    -0.0001200665268562
 43    -0.0000065856103187
 44     0.0134550039173036
 45    -0.0440639419069467
 46     0.0001018362257086
 47     0.0001151881979274
 48    -0.0320541788081990
 49     0.0012838650685918
 50     0.0002097638081193
 51    -0.0000220319705261
 52    -0.0167907319680953
 53    -0.0707969086517835
 54    -0.0201280019750126
 55     0.0058596582338141
 56     0.0065142972033491
 57     0.0290384621641730
 58     0.0109239107520423
 59     0.0076270750958269
 60     0.0076126064517827
 61    -0.0716376231705669
 62     0.0202640512250200
 63    -0.0057124161508473
 64     0.0064172226145725
 65     0.0294500455960023
 66    -0.0109286733037368
 67    -0.0076728478943198
 68     0.0077817097456540
 69     0.0365921679168672
 70    -0.0071109099833922
 71    -0.0270265006968195
 72    -0.0057714499171726
 73     0.0036786779488303
 74    -0.0104596145501262
 75     0.0049277018531007
 76    -0.0091301049149646
 77     0.0369692681324797
 78     0.0072600817202681
 79     0.0271895600676236
 80    -0.0058919100719972
 81     0.0038856349466272
 82     0.0104919446547762
 83    -0.0048115245041578
 84    -0.0092808346860409
 85    -0.0154581667345587
 86     0.0089623934345468
 87     0.0008549532487191
 88     0.0035442816289720
 89    -0.1375403566923602
 90    -0.0155611802930092
 91    -0.0281395956133367
 92    -0.0324288362930936
 93    -0.0155666464483783
 94    -0.0091334174078471
 95    -0.0008521658791403
 96     0.0036589894253168
 97    -0.1387833730167801
 98     0.0161587033722118
 99     0.0287728615085066
 100    -0.0324340293559771
 101    -0.0178184435683339
 102     0.0000154812769752
 103     0.0001028592143543
 104     0.0033606925321128
 105    -0.0225154187080822
 106     0.0000316622023692
 107     0.0001711028159985
 108    -0.0309031278123222
 109    -0.0038849753214071
 110    -0.0002006437326889
 111     0.0001581120043473
 112    -0.0030752628947505
 113    -0.0305701484556004
 114     0.0006712734892967
 115     0.0007215370115181
 116     0.0211317865827174
 117    -0.0051835368625304
 118     0.0001177129484381
 119    -0.0000624300285125
 120    -0.0027189087909296
 121    -0.0116871074430841
 122    -0.0004192071687806
 123    -0.0003630339773045
 124     0.0110793816880941
 125     0.1401173178099912
 126    -0.3257539178738704
 127    -0.0814427869136143
 128     0.1368913818397599
 129     0.1421859320703090
 130    -0.3305541305729249
 131    -0.0825277985772324
 132     0.1389389724916829
 133    -0.0971941600771852
 134     0.2416075535921282
 135    -0.0402451707139635
 136     0.0537727919809484
 137    -0.0987268794761198
 138     0.2453406264236715
 139    -0.0407190780527110
 140     0.0547082407527804
 141     0.0594925760013000
 142    -0.0913168291047636
 143     0.1984705912732164
 144    -0.4283549875145023
 145     0.0603915967817261
 146    -0.0929297127117606
 147     0.2009496903399139
 148    -0.4340518877529458
 149    -0.0000992242581205
 150     0.0000306218758640
 151    -0.0000860506714819
 152    -0.0000432812492284
 153    -0.0012816655829913
 154    -0.0023352202585564
 155     0.0000722278758844
 156    -0.0001027748293271
 157     0.0020581020687321
 158     0.0000197052634053
 159    -0.0000216553689170
 160    -0.0000047898803116
 161     0.0000272622019289
 162     0.0000894395495402
 163    -0.0003127701937338
 164    -0.0002878567681046
 165     0.0002164327717917
 166    -0.0004476765643546
 167     0.0000135061457573
 168     0.0000300634295723
 169     0.0000158290333890
 170    -0.0000017072844952
 171     0.0001284629779568
 172    -0.0003316811526699
 173    -0.0000409298832928
 174    -0.0003330990408214
 175    -0.0006174491349075
 176     0.0000189754758306
 177    -0.0000184060762577
 178     0.0000350801338892
 179    -0.0000260256689212
 180     0.0001002232853491
 181    -0.0003181240844766
 182     0.0002840870038948
 183     0.0002588308870256
 184    -0.0001750666517093
 Sym= 133A
 Ene= 0.315914
 Spin= Alpha
 Occup= 2.000000
  1     0.0000030946632234
  2    -0.0000139789682064
  3     0.0000093141504227
  4    -0.0000229442914983
  5     0.0001742530901468
  6    -0.0000692497625936
  7     0.0003455896580614
  8     0.0002253923496875
  9     0.0008692456227545
 10    -0.0000078226570287
 11     0.0000264724345130
 12     0.0000009313720979
 13     0.0000013080032458
 14     0.0001740115353578
 15    -0.0000988327668337
 16    -0.0000134258599331
 17    -0.0004196058626251
 18     0.0008656555210830
 19    -0.0000006656462616
 20    -0.0000134264470255
 21    -0.0000009626300412
 22     0.0000236284266510
 23     0.0001660232185178
 24    -0.0000726155409437
 25    -0.0003607765561630
 26     0.0002212784749153
 27     0.0008009344327759
 28     0.0000077082567493
 29    -0.0000016930900984
 30    -0.0000163325608705
 31    -0.0000067441109307
 32    -0.0007472852038982
 33    -0.0028412550296105
 34     0.0000281389971212
 35     0.0000018168177637
 36    -0.0014269904367824
 37    -0.0020383867897248
 38     0.0002748347354958
 39     0.0001016825696935
 40     0.0168881735685765
 41     0.0518323265260483
 42     0.0008008937584208
 43     0.0000061703481991
 44     0.0443310179652659
 45     0.0230505629576150
 46     0.0001640602411723
 47     0.0001918971836120
 48     0.0164958551787390
 49    -0.0505765038423187
 50     0.0002831391617899
 51    -0.0003766317996356
 52     0.0341063047488629
 53     0.0225802811480041
 54    -0.0031392209798259
 55    -0.0042249463805854
 56     0.0002182671768371
 57    -0.0613999135446966
 58     0.0276082527261175
 59     0.0184713668673519
 60     0.0067527791269821
 61     0.0220052685453698
 62     0.0030138448252858
 63     0.0040634056462652
 64     0.0005650648344254
 65    -0.0595695307214182
 66    -0.0269266821360450
 67    -0.0184689969434330
 68     0.0063207980056301
 69    -0.0093859693876875
 70     0.0028686746592642
 71     0.0160903589089030
 72     0.0053764858399047
 73     0.0849850427775632
 74     0.0141714657891251
 75    -0.0262962116569011
 76    -0.0044468022559610
 77    -0.0091940776895591
 78    -0.0026817157446953
 79    -0.0156532753604486
 80     0.0050831514775839
 81     0.0822206062093841
 82    -0.0132314549246811
 83     0.0258828096829262
 84    -0.0047097610272995
 85     0.0012601878158439
 86    -0.0046189270787467
 87    -0.0006979108810535
 88    -0.0012946557921992
 89    -0.0473681507683549
 90    -0.0135390801393752
 91    -0.0013573029435746
 92    -0.0111190641556666
 93     0.0013407576047271
 94     0.0044193555412955
 95     0.0006234583000108
 96    -0.0010884691113960
 97    -0.0459417450643005
 98     0.0125514887350228
 99     0.0010402634568652
 100    -0.0107269103779685
 101     0.0103000852019624
 102    -0.0000029384746971
 103     0.0001492244251225
 104    -0.0003629755004663
 105    -0.0225201651636627
 106     0.0000572230925477
 107    -0.0004175851576242
 108    -0.0122742212929110
 109    -0.0017087736819419
 110    -0.0001240113630113
 111     0.0000851598265224
 112    -0.0006183534255484
 113    -0.0163920977071694
 114    -0.0011850078732548
 115    -0.0012548442474396
 116     0.0115576465128385
 117     0.0035560749343194
 118     0.0000531145562663
 119    -0.0000296028031978
 120     0.0007877911303760
 121    -0.0074414993323189
 122     0.0005627532587162
 123     0.0005821897908778
 124     0.0054124864753542
 125    -0.0948877865893397
 126     0.1713379629075213
 127     0.1558590248301290
 128    -0.3671770616379105
 129    -0.0907366622269825
 130     0.1633038487538765
 131     0.1487731159426698
 132    -0.3506767708398200
 133     0.0366877971472821
 134    -0.0984664581114568
 135    -0.1870939396794737
 136     0.4330481402237853
 137     0.0349022139687478
 138    -0.0939523344296324
 139    -0.1789384507451658
 140     0.4138255450617476
 141    -0.0196042356125451
 142     0.0251396312390170
 143     0.1300046011309492
 144    -0.2273484068059533
 145    -0.0187602637968683
 146     0.0238527346511409
 147     0.1243171706059818
 148    -0.2162854957358745
 149     0.0001567653695894
 150    -0.0000213323271063
 151     0.0001612296783554
 152    -0.0000595448244621
 153    -0.0002189345998161
 154    -0.0004640323390978
 155     0.0002427536307140
 156     0.0001635265129530
 157    -0.0000087643597866
 158    -0.0000206293507530
 159     0.0000107714954438
 160     0.0000015840689336
 161     0.0000067543979979
 162     0.0000165338181999
 163     0.0000320702950152
 164    -0.0001532390195132
 165    -0.0000286560428997
 166     0.0000194878896185
 167    -0.0000132419775824
 168    -0.0000017624652200
 169    -0.0000095120412505
 170     0.0000119417673047
 171     0.0000076544647313
 172     0.0000224965855769
 173    -0.0001166292654254
 174    -0.0001513944141468
 175     0.0002419260666976
 176    -0.0000542988153465
 177     0.0000056554647310
 178    -0.0000787088291351
 179    -0.0000006012077341
 180     0.0000893422469047
 181     0.0000609374302060
 182     0.0000176786882665
 183     0.0000039148673779
 184    -0.0006068683116401
 Sym= 134A
 Ene= 0.316152
 Spin= Alpha
 Occup= 2.000000
  1     0.0000011254685185
  2     0.0000334966797209
  3    -0.0001241556084503
  4    -0.0000233557572925
  5    -0.0000683202040804
  6    -0.0000392038410177
  7     0.0002742048698953
  8    -0.0002154486386162
  9    -0.0008273262024476
 10     0.0001283557945240
 11    -0.0000010360177301
 12    -0.0000614929709036
 13    -0.0000452286098132
 14    -0.0000912814088275
 15    -0.0000571814366070
 16     0.0003405707632353
 17    -0.0001702370916695
 18    -0.0010392943035512
 19     0.0001207225591817
 20     0.0000086140170129
 21    -0.0002049672583826
 22     0.0000044369803878
 23     0.0001740477874742
 24     0.0000936999818343
 25     0.0002054841494118
 26    -0.0001751923149851
 27     0.0019316549561449
 28    -0.0003420157998068
 29    -0.0000868015125020
 30     0.0006894066546791
 31     0.0001300959327717
 32    -0.0000211212960282
 33    -0.0000773127426467
 34    -0.0007685909903677
 35     0.0005869945463312
 36    -0.0000348193487321
 37    -0.0000454899103634
 38    -0.0118779988823622
 39    -0.0043615988640717
 40     0.0003931556715291
 41     0.0012037322971759
 42    -0.0354561789923888
 43    -0.0004472385367925
 44     0.0010325016455432
 45     0.0005326978584981
 46    -0.0069815991650032
 47    -0.0081749444466493
 48     0.0003825241220262
 49    -0.0011747254440824
 50    -0.0116070839223148
 51     0.0157317760090936
 52     0.0007893918190468
 53    -0.0121173942714020
 54     0.0027313526416487
 55     0.0034735695893904
 56     0.0075983477291200
 57     0.0388627552990365
 58    -0.0141319257461915
 59     0.0002701781843737
 60    -0.0094963671038728
 61     0.0131459257777366
 62     0.0028790119022644
 63     0.0036615199831051
 64    -0.0075809495102645
 65    -0.0416703051333979
 66    -0.0154045339105828
 67    -0.0005829721834995
 68     0.0098070823183087
 69     0.0038566066098731
 70    -0.0039006758928433
 71    -0.0089979965194815
 72    -0.0060843162317301
 73    -0.0582968991561454
 74    -0.0205614653217356
 75     0.0084775540527122
 76    -0.0056847285313128
 77    -0.0042826765352534
 78    -0.0040167569429446
 79    -0.0097255051127418
 80     0.0063183630499355
 81     0.0621718876873321
 82    -0.0211787706775877
 83     0.0096814168833079
 84     0.0054524143610494
 85     0.0018455756829515
 86     0.0042081379348396
 87     0.0016206797085308
 88     0.0045225418445019
 89     0.0298544661295296
 90     0.0217862676988861
 91     0.0064869956264713
 92     0.0083582212992287
 93    -0.0017876334464828
 94     0.0044145085285962
 95     0.0016491089383221
 96    -0.0045785807500321
 97    -0.0320091153328844
 98     0.0223924312285191
 99     0.0065543762309254
 100    -0.0088684509961972
 101     0.0002411213980166
 102     0.0000366194792169
 103    -0.0065311493576984
 104    -0.0000125889217421
 105    -0.0005509294211258
 106    -0.0033678318660501
 107     0.0189357927085102
 108    -0.0003165156938930
 109    -0.0000443349011350
 110     0.0055163773370873
 111    -0.0033979947308921
 112    -0.0000157198565683
 113    -0.0003384104826480
 114     0.0530502946116749
 115     0.0541707919793106
 116     0.0002652305532829
 117     0.0000898652639197
 118    -0.0025179101026426
 119     0.0008678745799531
 120     0.0000148885608558
 121    -0.0002587999373503
 122    -0.0265025901818202
 123    -0.0245502279743327
 124     0.0000826357888839
 125     0.0880724579871485
 126    -0.1703976836103188
 127    -0.1511358113507026
 128     0.3517508898299673
 129    -0.0923559496869349
 130     0.1781101616250641
 131     0.1581976793438591
 132    -0.3683889163070824
 133    -0.0377277364602252
 134     0.0955019004084392
 135     0.1739105806190957
 136    -0.4104274900453836
 137     0.0393651555908551
 138    -0.0999269895671753
 139    -0.1823996298670567
 140     0.4300982811037070
 141     0.0177998473857451
 142    -0.0273103381433603
 143    -0.1212277493136574
 144     0.2365259956612285
 145    -0.0186846813813173
 146     0.0284373626248958
 147     0.1271418639497212
 148    -0.2468231521264062
 149    -0.0067924942596579
 150     0.0012817205184784
 151    -0.0069515809228871
 152     0.0012381153229154
 153     0.0000417416422542
 154     0.0001284933270061
 155    -0.0070990644282385
 156    -0.0079458454302543
 157    -0.0000109256374538
 158     0.0003648894231797
 159    -0.0004569971551670
 160     0.0009534885273798
 161    -0.0002936694103071
 162     0.0004156324114242
 163     0.0002730792814128
 164     0.0026549445016058
 165     0.0032344975903793
 166    -0.0051514830308078
 167     0.0019691090660581
 168     0.0000053707825344
 169     0.0005861074471493
 170    -0.0004356830039848
 171     0.0014385750114850
 172     0.0005667982671957
 173     0.0032374785494597
 174     0.0024666888450705
 175    -0.0156547462745596
 176     0.0015037151212419
 177    -0.0002239732744825
 178     0.0021820966867878
 179     0.0001072636540630
 180    -0.0018836942316509
 181    -0.0008805624334937
 182     0.0019019270080288
 183     0.0028805684512802
 184     0.0208668164023462
 Sym= 135A
 Ene= 0.382541
 Spin= Alpha
 Occup= 2.000000
  1    -0.0053985137260493
  2     0.0011317495048299
  3    -0.0095905010756436
  4     0.0020027451862783
  5    -0.0379365067250524
  6    -0.0105480484780404
  7    -0.0704129636158173
  8    -0.0430549993752573
  9    -0.1725093491730829
 10     0.0104997241969936
 11    -0.0022969861253403
 12     0.0000002422850679
 13     0.0000021208353299
 14    -0.0379523935028300
 15    -0.0045231251316246
 16    -0.0000161336869116
 17     0.0832450357826997
 18    -0.1696698316711742
 19    -0.0054042101102763
 20     0.0011325617694531
 21     0.0096008100268367
 22    -0.0020023157235966
 23    -0.0379472677803649
 24    -0.0105624097443844
 25     0.0703911462160263
 26    -0.0430539656316555
 27    -0.1725964236074208
 28     0.0003883594042409
 29     0.0005504307688281
 30    -0.0000201900469721
 31    -0.0000051244411046
 32     0.1946427889935516
 33     0.6110268779361414
 34     0.0000503886657756
 35    -0.0036880987823168
 36     0.2301397907807368
 37    -0.0182935287811534
 38     0.0000021029516007
 39    -0.0000007917885293
 40     0.0168057210845083
 41    -0.0004733464792662
 42     0.0000000143306514
 43     0.0000004034884649
 44     0.0017581193553959
 45    -0.0024858632385036
 46     0.0000011892784089
 47    -0.0000228144317005
 48     0.0242416552111054
 49    -0.0013145843767993
 50     0.0000003594406045
 51    -0.0000001230273715
 52     0.0011570837429057
 53     0.0044082896182228
 54     0.0006021671257285
 55    -0.0033703923942874
 56     0.0010938707617826
 57    -0.0027015987780122
 58    -0.0001603558077843
 59    -0.0008052570412593
 60     0.0033424037409758
 61     0.0043995595869293
 62    -0.0006024598373245
 63     0.0033703720630240
 64     0.0010977543858459
 65    -0.0027013863222937
 66     0.0001618402338780
 67     0.0008061186996362
 68     0.0033419129470565
 69    -0.0432188060582803
 70     0.0096928953198706
 71    -0.0112642804665004
 72     0.0455884244355159
 73     0.0003475771697152
 74    -0.0000616868515114
 75    -0.0003140306688022
 76     0.0000735614566204
 77    -0.0431261609028639
 78    -0.0096255713409003
 79     0.0112385127001793
 80     0.0455197390991776
 81     0.0003475654300872
 82     0.0000615710356873
 83     0.0003142435983811
 84     0.0000734273894366
 85     0.0403331958257087
 86     0.0274751986898679
 87    -0.0364723897929711
 88     0.0211076087578194
 89    -0.0001293504073815
 90    -0.0000881918162880
 91    -0.0000304813622264
 92     0.0001752539540360
 93     0.0401216093035023
 94    -0.0274494667669075
 95     0.0362206567663968
 96     0.0211949579922024
 97    -0.0001294198584210
 98     0.0000882783745974
 99     0.0000304784362158
 100     0.0001753125007375
 101    -0.2074437715717894
 102     0.0002278807687795
 103    -0.0000261941113427
 104     0.1792794892004561
 105    -0.0001723687121221
 106    -0.0000000680623029
 107     0.0000000504976923
 108     0.0000574904144065
 109     0.2687451441442700
 110    -0.0001151359591398
 111    -0.0006490852396956
 112     0.0750151806271167
 113    -0.0000053581108862
 114     0.0000000332650628
 115    -0.0000000691611116
 116     0.0000147392504517
 117    -0.4630068607039546
 118     0.0000663750057198
 119     0.0013034240507132
 120     0.1796330811690408
 121    -0.0000414207408977
 122    -0.0000000572347942
 123     0.0000001062658143
 124    -0.0000054512515124
 125    -0.0005784176694611
 126     0.0086147537448380
 127     0.0025130076181531
 128    -0.0000201702988282
 129    -0.0005734258811977
 130     0.0086041139371973
 131     0.0025117218957215
 132    -0.0000194930445921
 133     0.0236776336609115
 134     0.0161420605171941
 135    -0.0003363764260467
 136     0.0013065436304261
 137     0.0236144396534617
 138     0.0160519214755123
 139    -0.0003359546142518
 140     0.0013056915483778
 141     0.0322972764109997
 142     0.0155775861554917
 143     0.0002766310273107
 144    -0.0001115542844894
 145     0.0321891027849450
 146     0.0157639015955750
 147     0.0002765492882847
 148    -0.0001113790214843
 149    -0.0000000209487241
 150     0.0000000408670606
 151     0.0000000073745642
 152    -0.0000000252831588
 153     0.0000129208563405
 154     0.0000398832241874
 155     0.0000001166357983
 156    -0.0000002401285982
 157    -0.0000168863876378
 158     0.0000002929939242
 159     0.0000000883302147
 160    -0.0000005206067084
 161    -0.0000001540775290
 162    -0.0000024076649897
 163    -0.0000002533448385
 164     0.0000044218861813
 165    -0.0000027235805111
 166     0.0000109911893378
 167    -0.0000005573482552
 168    -0.0000001771940388
 169     0.0000000033595903
 170     0.0000000055737372
 171    -0.0000023922905205
 172     0.0000001274955026
 173    -0.0000000573758347
 174     0.0000052585969091
 175     0.0000107648406350
 176     0.0000002819868684
 177     0.0000000865934275
 178     0.0000005082899652
 179     0.0000001546292192
 180    -0.0000023791628561
 181    -0.0000002523805360
 182    -0.0000044753039013
 183    -0.0000027104750396
 184     0.0000108890104303
 Sym= 136A
 Ene= 0.392309
 Spin= Alpha
 Occup= 2.000000
  1     0.0000000132669678
  2    -0.0000000155842651
  3     0.0000000238876525
  4    -0.0000000268796593
  5     0.0000002631602125
  6    -0.0000001236869294
  7     0.0000004611897457
  8     0.0000002876772775
  9     0.0000012198455820
 10    -0.0000000186916361
 11     0.0000000310547618
 12    -0.0000000016272448
 13     0.0000000025930585
 14     0.0000002545787755
 15    -0.0000001702318532
 16    -0.0000000255896342
 17    -0.0000005592774296
 18     0.0000011669537079
 19     0.0000000081524311
 20    -0.0000000148539387
 21    -0.0000000182971293
 22     0.0000000270321168
 23     0.0000002505654843
 24    -0.0000001264384018
 25    -0.0000004850784694
 26     0.0000002831354731
 27     0.0000011715238323
 28    -0.0000000019923256
 29    -0.0000000053239028
 30    -0.0000000031598040
 31    -0.0000000053658837
 32    -0.0000015859825176
 33    -0.0000047640479844
 34     0.0000000546181904
 35     0.0000000398367074
 36    -0.0000027152076179
 37    -0.0000265337791464
 38    -0.0000001628162483
 39    -0.0000007999918885
 40     0.0018217173624678
 41     0.0149611101063386
 42     0.0000014759527215
 43     0.0000023337018722
 44     0.0135775125714593
 45     0.0015182007798905
 46     0.0000006788212252
 47     0.0000000403676534
 48     0.0012586810747612
 49     0.0022156831503630
 50    -0.0000056362288073
 51     0.0000235885579573
 52     0.0200241706267383
 53     0.0023422756162139
 54    -0.0001394177065151
 55     0.0006663124936403
 56     0.0027772510377080
 57    -0.0039025887973296
 58     0.0004619230369558
 59     0.0026867032725681
 60     0.0010037203136035
 61     0.0023398539685992
 62     0.0001414696081205
 63    -0.0006666853359087
 64     0.0027752148992834
 65    -0.0038905673199022
 66    -0.0004638648741292
 67    -0.0026862740858355
 68     0.0010091011192172
 69    -0.0002798159500094
 70    -0.0001523266881634
 71     0.0003439593607446
 72     0.0001487175507643
 73     0.0360959705874095
 74     0.0076102261207697
 75     0.0087097592760265
 76     0.0396208979640104
 77    -0.0002800966505736
 78     0.0001522202020510
 79    -0.0003445342370944
 80     0.0001485165454671
 81     0.0360171803882436
 82    -0.0075440424032758
 83    -0.0087035658245285
 84     0.0395551333401293
 85     0.0002134603617575
 86    -0.0001046109090275
 87     0.0000874414746686
 88     0.0002510986738257
 89    -0.0337404068768306
 90     0.0235949238398826
 91     0.0313679063186378
 92     0.0152625722179812
 93     0.0002136558907809
 94     0.0001047926144377
 95    -0.0000875238716391
 96     0.0002512012532343
 97    -0.0335573148034766
 98    -0.0235880282712087
 99    -0.0311203580768417
 100     0.0153420509118867
 101     0.0001862957547059
 102    -0.0000000481986543
 103    -0.0000000883621581
 104     0.0001014811582484
 105     0.1857170366374001
 106     0.0002116114619165
 107    -0.0000012417153523
 108     0.1692136270826753
 109     0.0000175827161153
 110     0.0000000248825514
 111     0.0000000281399807
 112     0.0000179827812011
 113    -0.2447386814298038
 114    -0.0001027267067970
 115     0.0006342274529030
 116     0.0580550912273201
 117     0.0000105315427865
 118    -0.0000000291274153
 119    -0.0000000270208686
 120     0.0000024160402479
 121     0.4688701465146591
 122     0.0000622693648124
 123    -0.0013122263260304
 124     0.1969531881233523
 125    -0.0019457770893077
 126    -0.0002039845837187
 127     0.0005381914317993
 128    -0.0068834310476461
 129    -0.0019449450971724
 130    -0.0002027436480212
 131     0.0005355833650482
 132    -0.0068810751326460
 133     0.0000025549238852
 134    -0.0007448966303080
 135    -0.0192950580887514
 136    -0.0145377805518384
 137     0.0000022695196631
 138    -0.0007444848602646
 139    -0.0192521070369882
 140    -0.0144386739702331
 141    -0.0002484235407042
 142    -0.0000348911943255
 143    -0.0279646983206332
 144    -0.0144295381000894
 145    -0.0002485360352479
 146    -0.0000350417265726
 147    -0.0278439688902091
 148    -0.0146548188057609
 149     0.0003912341193876
 150    -0.0005486947087558
 151     0.0000361178125231
 152    -0.0000108587765697
 153    -0.2009614267278747
 154    -0.6247453223282654
 155     0.0001551324232718
 156     0.0036468134640389
 157     0.2274107995172611
 158    -0.0059398666900063
 159    -0.0009912748370692
 160     0.0105244682742550
 161     0.0017477426543947
 162     0.0386952194790329
 163     0.0132099970610623
 164    -0.0710477393982888
 165     0.0434012415826156
 166    -0.1744538308355676
 167     0.0115890750674591
 168     0.0020157686800882
 169     0.0000023805972068
 170     0.0000033294581319
 171     0.0387224166282727
 172     0.0072335810819512
 173    -0.0000356694788805
 174    -0.0838419650360073
 175    -0.1716295298794741
 176    -0.0059551780146234
 177    -0.0009916757837778
 178    -0.0105461424913769
 179    -0.0017460736355686
 180     0.0387201727542500
 181     0.0132745942111853
 182     0.0710012893561812
 183     0.0434026893867666
 184    -0.1746330334705306
 Sym= 137A
 Ene= 0.449590
 Spin= Alpha
 Occup= 2.000000
  1    -0.0004430004824754
  2     0.0000004697790917
  3    -0.0007809041145920
  4     0.0000156014431062
  5    -0.0020601183601818
  6    -0.0013589938801676
  7    -0.0036245422499145
  8    -0.0021411582262297
  9    -0.0089693208021567
 10     0.0008371603705470
 11    -0.0000133391063018
 12    -0.0000000927425989
 13     0.0000018189916552
 14    -0.0020204737814789
 15    -0.0010271113658488
 16    -0.0000111879550872
 17     0.0042953884575737
 18    -0.0085334632538981
 19    -0.0004448307651621
 20     0.0000000674342668
 21     0.0007838794004748
 22    -0.0000163621560705
 23    -0.0020646560194425
 24    -0.0013594816101808
 25     0.0036176228773643
 26    -0.0021340671683806
 27    -0.0089962778142390
 28     0.0000540792588888
 29     0.0000389811969362
 30    -0.0000030102769160
 31    -0.0000047006657226
 32     0.0117091468532688
 33     0.0327720978307674
 34     0.0000188763067510
 35    -0.0004168435043871
 36     0.0097832166917728
 37     0.4386895315759278
 38    -0.0000226767116732
 39    -0.0000501470995464
 40    -0.3675729802966754
 41    -0.0742932404786524
 42    -0.0000049928345561
 43     0.0000027078414451
 44    -0.1191354027608743
 45    -0.4571620355205890
 46    -0.0000768945827708
 47    -0.0000051705676427
 48    -0.3426465187486138
 49     0.1224603248859091
 50    -0.0000103976366466
 51     0.0000057789294882
 52    -0.1014465903549827
 53    -0.0997777449628737
 54     0.0038335680706089
 55     0.0952698988325730
 56    -0.0859131157006976
 57     0.1256234868564209
 58    -0.0021884096760443
 59     0.0233500550190377
 60    -0.1179797313738588
 61    -0.0998628416549243
 62    -0.0038880711336761
 63    -0.0953381360520059
 64    -0.0858904960930284
 65     0.1256718580737745
 66     0.0021414893406480
 67    -0.0233576408405947
 68    -0.1179970162377527
 69     0.0864934857956169
 70     0.0728720826868498
 71    -0.0890761614843813
 72    -0.0717156622067636
 73    -0.0221719175844060
 74     0.0165502426009325
 75     0.0220320950138765
 76    -0.0137096690625256
 77     0.0864958942185246
 78    -0.0727988471234184
 79     0.0891422709524720
 80    -0.0716853775745580
 81    -0.0221647274928062
 82    -0.0165288471935753
 83    -0.0220381667019045
 84    -0.0137069544025683
 85    -0.1208176858525738
 86     0.0354973737365513
 87    -0.0485418558645636
 88    -0.1062565823819386
 89     0.0258390402061000
 90     0.0076645555548686
 91     0.0097375486547086
 92    -0.0255739876389675
 93    -0.1208339329090852
 94    -0.0355126908729217
 95     0.0485474563793571
 96    -0.1062283937228619
 97     0.0258373582706598
 98    -0.0076651196900745
 99    -0.0097344230943946
 100    -0.0255676742900648
 101    -0.0376869601617332
 102     0.0000295652356985
 103     0.0000115748738901
 104    -0.0375412631801953
 105     0.0099466324296664
 106     0.0000076662055720
 107    -0.0000027494591117
 108    -0.0084809984790122
 109    -0.0189423974622153
 110    -0.0000065352014744
 111    -0.0000398006101483
 112    -0.0178181703918409
 113     0.0038433262743183
 114    -0.0000020124161349
 115     0.0000097898189644
 116    -0.0039072405101544
 117    -0.0201742535774873
 118    -0.0000002748610495
 119     0.0001161567791016
 120     0.0193832809659162
 121     0.0049469955809175
 122     0.0000004161092723
 123    -0.0000254060160363
 124     0.0042902275170043
 125    -0.0895856684254998
 126     0.0128394110923860
 127    -0.0384416072355373
 128    -0.0442412791997049
 129    -0.0895888240787105
 130     0.0128479487936495
 131    -0.0384680937974820
 132    -0.0442632827695260
 133     0.1073385564989032
 134     0.0041129791394414
 135    -0.0207759485469169
 136    -0.0134758977523354
 137     0.1073224855056110
 138     0.0041049441655956
 139    -0.0207705431126748
 140    -0.0134790194773172
 141     0.0757397516017316
 142     0.0500161937770946
 143    -0.0171161230836133
 144    -0.0103860748647135
 145     0.0757285038229291
 146     0.0500263049812915
 147    -0.0171101238273265
 148    -0.0103855210557129
 149     0.0000108664587754
 150    -0.0000084635775917
 151     0.0000008894744681
 152    -0.0000009897222083
 153    -0.0027210713318771
 154    -0.0076888153501546
 155     0.0000050237829561
 156     0.0000853797564705
 157     0.0022914799645310
 158    -0.0001029246712616
 159    -0.0000006221982851
 160     0.0001813612997123
 161     0.0000035754920320
 162     0.0004811811460417
 163     0.0003174492357124
 164    -0.0008464849373688
 165     0.0005035257403412
 166    -0.0020926966233625
 167     0.0001963513040316
 168     0.0000035408773918
 169     0.0000000283983833
 170     0.0000004023795247
 171     0.0004741798484442
 172     0.0002416230774848
 173    -0.0000025024461604
 174    -0.0010000205103336
 175    -0.0020069358989453
 176    -0.0001034055532503
 177    -0.0000005307013722
 178    -0.0001821349213277
 179    -0.0000037319094206
 180     0.0004822629234249
 181     0.0003180960805417
 182     0.0008448338766280
 183     0.0005019445795721
 184    -0.0020997008827506
 Sym= 138A
 Ene= 0.472789
 Spin= Alpha
 Occup= 2.000000
  1     0.0063865188618570
  2     0.0771035310955231
  3     0.0107670061034349
  4    -0.0505384850989901
  5     0.0194426813222559
  6    -0.0264823143210146
  7     0.2085542523066989
  8    -0.4832101393253094
  9     0.1060634315695181
 10    -0.0003152331637216
 11     0.0000624039856967
 12    -0.0002519524329117
 13     0.1133841309366916
 14     0.0003985027318210
 15    -0.0000403156714139
 16    -0.6063298246818619
 17     0.0009974227209915
 18     0.0026043074575498
 19    -0.0065386404348937
 20    -0.0773405293307378
 21     0.0110489550693195
 22    -0.0507486303538163
 23    -0.0198430306979301
 24     0.0265202827527225
 25     0.2085207439072169
 26     0.4851127754758088
 27    -0.1086578575686749
 28     0.0004964068173423
 29     0.0001673992912250
 30    -0.0139525734629554
 31    -0.0064581686485601
 32     0.0000018979157310
 33     0.0000026504481737
 34     0.1382230945716708
 35    -0.0028536310279518
 36    -0.0000103600623618
 37     0.0001928411815569
 38    -0.0001057472014944
 39     0.0000483927606342
 40    -0.0000700054383714
 41     0.0005818672910024
 42     0.0000071952373236
 43     0.0000333329448030
 44     0.0004241047634082
 45    -0.0001275647562614
 46     0.0004441793321394
 47    -0.0001718802785978
 48    -0.0000921284220486
 49    -0.0005617752418057
 50     0.0000105868840504
 51     0.0000039265935684
 52     0.0004407227984082
 53     0.0001859906561274
 54     0.0000426622032116
 55     0.0001858447678905
 56     0.0000773013743661
 57    -0.0000421927152613
 58    -0.0000223080639941
 59     0.0001987811404559
 60     0.0000364975019542
 61     0.0000664525532076
 62     0.0000317298143955
 63    -0.0000387581694585
 64     0.0001407186149052
 65    -0.0000888363217436
 66    -0.0000085433481772
 67    -0.0001234750302527
 68     0.0000732042117533
 69    -0.0017290969448561
 70     0.0003639799794036
 71    -0.0010606230716859
 72     0.0009357236452092
 73     0.0000871088727224
 74    -0.0000854996154060
 75    -0.0001013003045999
 76     0.0000866138657707
 77     0.0017870022074006
 78     0.0003192811934063
 79    -0.0010110848858032
 80    -0.0009982291515127
 81     0.0001092401746663
 82     0.0000902433131099
 83     0.0001103001000016
 84     0.0000807523359689
 85     0.0030127903464513
 86     0.0026102107937735
 87    -0.0013724332195795
 88    -0.0004994536007041
 89    -0.0001393899628457
 90    -0.0000383932642973
 91    -0.0000540386723396
 92     0.0001268808905821
 93    -0.0031239450024907
 94     0.0025929856506345
 95    -0.0013467946799602
 96     0.0004298407938892
 97    -0.0001484843794763
 98     0.0000404697380172
 99     0.0000556559248446
 100     0.0001325957600747
 101     0.0000114514459439
 102    -0.0010848825026696
 103    -0.0059956740907556
 104    -0.0000224976154701
 105    -0.0000384472136173
 106    -0.0000004012997281
 107    -0.0000001111532357
 108     0.0000485478006340
 109    -0.0000279222212835
 110     0.0137660587474946
 111     0.0016260104051023
 112    -0.0000174025232498
 113    -0.0000289920495279
 114     0.0000000549708796
 115     0.0000001012125839
 116     0.0000243611666675
 117     0.0000060556807165
 118    -0.0380340855745540
 119    -0.0002210340797939
 120     0.0000060321705574
 121    -0.0000209634904948
 122     0.0000004274936752
 123     0.0000001602679934
 124    -0.0000244577714197
 125    -0.0002705254333311
 126     0.0001316449914521
 127    -0.0001739778495817
 128    -0.0000517305856763
 129     0.0000065359535843
 130    -0.0002549741772468
 131    -0.0001472750065776
 132     0.0000181387071433
 133     0.0015309863446397
 134     0.0010236520451068
 135     0.0001342857662950
 136    -0.0000052800717100
 137    -0.0014604312615413
 138    -0.0010545589076982
 139     0.0001356510043262
 140    -0.0000094025754369
 141     0.0011792358216740
 142    -0.0012984109095686
 143     0.0000819727155980
 144     0.0000573668332898
 145    -0.0011137448666622
 146     0.0012928532883775
 147     0.0000873559413488
 148     0.0000622547926616
 149    -0.0000001603914636
 150     0.0000000795144192
 151    -0.0000002425150572
 152     0.0000001072052768
 153     0.0000133987958718
 154     0.0000367474738237
 155    -0.0000021338805443
 156    -0.0000011107978717
 157    -0.0000099415222745
 158     0.0000004609943547
 159     0.0000010389803201
 160    -0.0000008215440380
 161     0.0000007017063351
 162    -0.0000020620360942
 163    -0.0000021626967702
 164     0.0000011412541135
 165    -0.0000089699616516
 166     0.0000085939164997
 167    -0.0000009650521689
 168     0.0000000322976698
 169    -0.0000000039558763
 170    -0.0000016069749142
 171    -0.0000021802291304
 172    -0.0000014369676064
 173     0.0000085878292832
 174     0.0000049775661392
 175     0.0000088892914130
 176     0.0000006613616507
 177    -0.0000011243501398
 178     0.0000011596401754
 179     0.0000007243139624
 180    -0.0000026585492952
 181    -0.0000014234941443
 182    -0.0000068926420083
 183     0.0000046559870573
 184     0.0000119007424831
 Sym= 139A
 Ene= 0.472887
 Spin= Alpha
 Occup= 2.000000
  1    -0.0001618580172406
  2    -0.0001281092795087
  3    -0.0002850627086259
  4     0.0000784524465414
  5    -0.0006727158306918
  6    -0.0004465945589891
  7    -0.0014298647410222
  8     0.0001298425187276
  9    -0.0029422184587920
 10     0.0002719552849980
 11     0.0000075871319900
 12     0.0000003115374260
 13    -0.0001734635476118
 14    -0.0006073918686831
 15    -0.0003860207932144
 16     0.0009269286668940
 17     0.0013474226165810
 18    -0.0024955907038994
 19    -0.0001432412741460
 20     0.0001098071514829
 21     0.0002535377104796
 22     0.0000771347911384
 23    -0.0006153760097625
 24    -0.0005285842610297
 25     0.0007814995269800
 26    -0.0013577601099568
 27    -0.0026310480185559
 28     0.0000312543884165
 29     0.0000182743694059
 30     0.0000195816227692
 31     0.0000080474659106
 32     0.0037272187776872
 33     0.0100848150118995
 34    -0.0001993613852018
 35    -0.0002462551534910
 36     0.0027642554995922
 37     0.1578096668731329
 38     0.0000043640001881
 39    -0.0000163269290750
 40    -0.0591250127157316
 41     0.4623316564537184
 42    -0.0000015432907654
 43    -0.0000377279020822
 44     0.3365016935652809
 45    -0.1085347527358304
 46    -0.0000163979353842
 47    -0.0000046001794712
 48    -0.0755660408288722
 49    -0.4459697347631323
 50     0.0000262313263746
 51    -0.0000307180378097
 52     0.3498010590492355
 53     0.0992706948592966
 54     0.0045851211516028
 55     0.0902400600544099
 56     0.0858936192240250
 57    -0.0505271095974955
 58    -0.0055226983423364
 59     0.1285627093871426
 60     0.0423599051565776
 61     0.0992815438974245
 62    -0.0045711827451887
 63    -0.0902669765696698
 64     0.0859291727165440
 65    -0.0505943044788706
 66     0.0055817888565762
 67    -0.1286242101529618
 68     0.0423440452264016
 69     0.0218560681825517
 70     0.0196740490126650
 71    -0.0218381379083763
 72    -0.0224518574447542
 73     0.0779376542128508
 74    -0.0698345948283345
 75    -0.0840161874917009
 76     0.0665123640440093
 77     0.0218459491031362
 78    -0.0196530350306378
 79     0.0218575045851394
 80    -0.0224445395274531
 81     0.0779022199323665
 82     0.0697419847562790
 83     0.0840224373735413
 84     0.0665125577080149
 85    -0.0365736595042216
 86     0.0094045392453436
 87    -0.0137517453474079
 88    -0.0284663912274445
 89    -0.1143330941854938
 90    -0.0313331777426413
 91    -0.0435877097955530
 92     0.1030433106386307
 93    -0.0365706962424911
 94    -0.0094133715717456
 95     0.0137506385264305
 96    -0.0284553070762628
 97    -0.1143422940096043
 98     0.0313125815249633
 99     0.0435585306721006
 100     0.1030069453306266
 101    -0.0050797278132889
 102     0.0000143974897163
 103     0.0000106209290878
 104    -0.0113257581103998
 105    -0.0305107985532669
 106    -0.0000346048113463
 107    -0.0000074825918385
 108     0.0385739138342810
 109    -0.0086194526080094
 110    -0.0000231805188457
 111    -0.0000241172925496
 112    -0.0067620299124138
 113    -0.0230488627879473
 114    -0.0000277566997775
 115    -0.0000550037029365
 116     0.0193562688453279
 117    -0.0053893164132065
 118     0.0000567308754604
 119     0.0000671339879543
 120     0.0071590002017989
 121    -0.0166322438318574
 122     0.0000960868641156
 123     0.0001641633426845
 124    -0.0194258331329096
 125    -0.1063422936667376
 126    -0.0478599662860880
 127    -0.1282785695935648
 128    -0.0140127881706673
 129    -0.1063694464454861
 130    -0.0478773251964436
 131    -0.1282969221594193
 132    -0.0140146900687788
 133     0.0330470530776239
 134    -0.0129197147704708
 135     0.1072550018020302
 136    -0.0059261361849562
 137     0.0330458273784835
 138    -0.0129227059378944
 139     0.1072246985241569
 140    -0.0059433707330317
 141     0.0205299324707643
 142     0.0149127662445187
 143     0.0672682740345130
 144     0.0475032799792777
 145     0.0205251628925134
 146     0.0149134750459621
 147     0.0672235007661180
 148     0.0475122407448988
 149    -0.0000756459522839
 150     0.0000462798723392
 151    -0.0000374103572278
 152     0.0000205569322749
 153     0.0106365449920202
 154     0.0291683812877494
 155    -0.0003649602708146
 156    -0.0005955692484716
 157    -0.0078890050346454
 158     0.0004209903723709
 159     0.0001723351914343
 160    -0.0007440186342744
 161     0.0001293186593973
 162    -0.0018022839378389
 163    -0.0014923245113779
 164     0.0026685340005832
 165    -0.0030274494864166
 166     0.0077256711865503
 167    -0.0007979613897292
 168     0.0000195600699072
 169    -0.0000009400787054
 170    -0.0002865902054295
 171    -0.0017705358040669
 172    -0.0011373753152854
 173     0.0015322524620276
 174     0.0038513806024582
 175     0.0073158770282492
 176     0.0004549780854804
 177    -0.0002164010801571
 178     0.0008008315561224
 179     0.0001260533382219
 180    -0.0019046463498740
 181    -0.0013598539468119
 182    -0.0037110829849417
 183    -0.0005878925402689
 184     0.0082821195315618
 Sym= 140A
 Ene= 0.473088
 Spin= Alpha
 Occup= 2.000000
  1    -0.0000002545394912
  2     0.0000008498489870
  3    -0.0000004538323850
  4    -0.0000005644754816
  5    -0.0000011370139045
  6    -0.0000013113478587
  7     0.0000001123202361
  8    -0.0000066746949154
  9    -0.0000047406410881
 10     0.0000005753170041
 11     0.0000000132477726
 12    -0.0000000028159665
 13     0.0000012412646067
 14    -0.0000012715811419
 15    -0.0000007988565708
 16    -0.0000066316278689
 17     0.0000027433504289
 18    -0.0000052650258713
 19    -0.0000003702302412
 20    -0.0000008781611084
 21     0.0000006479816265
 22    -0.0000005583249116
 23    -0.0000015076797343
 24    -0.0000007054633098
 25     0.0000046811717153
 26     0.0000040584397437
 27    -0.0000066643294268
 28     0.0000000518408130
 29     0.0000000306618432
 30    -0.0000001027616664
 31    -0.0000000561642986
 32     0.0000077029835282
 33     0.0000208364459427
 34     0.0000012518965738
 35    -0.0000003846853438
 36     0.0000057077636502
 37     0.0003261219876300
 38     0.0000034159190097
 39    -0.0000452970922339
 40    -0.0001219421854044
 41     0.0009588458904266
 42    -0.0001102556476307
 43    -0.0000781382147371
 44     0.0006976689693814
 45    -0.0002240675885214
 46     0.0000160867767277
 47    -0.0000087764470684
 48    -0.0001559390972220
 49    -0.0009283151093445
 50     0.0004187496781972
 51     0.0000303528197343
 52     0.0007241911433942
 53     0.0001872728981129
 54    -0.0000024772904287
 55     0.0001416224162407
 56     0.0001620714936806
 57    -0.0001318382897341
 58     0.0000189759190031
 59     0.0001705988277999
 60     0.0000679932772659
 61     0.0002260543893649
 62    -0.0000216043220635
 63    -0.0002326385367142
 64     0.0001950141594550
 65    -0.0000790189014067
 66     0.0000425338542225
 67    -0.0003624126212532
 68     0.0001083293190081
 69     0.0000604396968093
 70     0.0000450235906566
 71    -0.0000541671840241
 72    -0.0000438316223829
 73     0.0014252528600149
 74    -0.0001181663862604
 75     0.0006348937902335
 76     0.0008978941221068
 77     0.0000297730663136
 78    -0.0000362317366955
 79     0.0000361111707146
 80    -0.0000490967138897
 81    -0.0011087176783797
 82     0.0001744555998849
 83     0.0009867617745103
 84    -0.0006313946659086
 85    -0.0000824245324281
 86     0.0000222282671956
 87    -0.0000308493780571
 88    -0.0000625693550268
 89    -0.0026522589286459
 90     0.0023894873266016
 91     0.0007454256314417
 92    -0.0003659815805432
 93    -0.0000688213262691
 94    -0.0000166718457144
 95     0.0000260040314325
 96    -0.0000550265251916
 97     0.0021997478510000
 98     0.0025257272989438
 99     0.0009348939040484
 100     0.0007917310369071
 101    -0.0000104378252908
 102     0.0000003671600040
 103    -0.0000013581439686
 104    -0.0000234309908850
 105    -0.0000846423084886
 106    -0.0019354401996704
 107     0.0053775271684904
 108     0.0000652149646857
 109    -0.0000178623587269
 110     0.0000002719628560
 111     0.0000000757383289
 112    -0.0000139971903905
 113    -0.0000250069828247
 114     0.0139237917539707
 115    -0.0014332289313171
 116     0.0000286458655788
 117    -0.0000111221638925
 118    -0.0000004474391117
 119     0.0000000860476955
 120     0.0000148113336187
 121    -0.0000555245238179
 122    -0.0362962142121930
 123     0.0001605469452570
 124    -0.0000516111315591
 125    -0.0001861999029532
 126    -0.0000693057985718
 127    -0.0001602095937453
 128    -0.0001287079264093
 129    -0.0002547853328253
 130    -0.0001299074841148
 131    -0.0003728638716449
 132     0.0000738910340465
 133     0.0000688156820411
 134    -0.0000237880715872
 135    -0.0007382344627809
 136    -0.0008557425683384
 137     0.0000678336593234
 138    -0.0000297216383522
 139     0.0011939611031609
 140     0.0008294361284214
 141     0.0000488913896560
 142     0.0000343412247505
 143    -0.0008502528281414
 144     0.0015992712118311
 145     0.0000359937814093
 146     0.0000273103626773
 147     0.0011155867194453
 148    -0.0013559737279295
 149     0.0004558607686441
 150    -0.0001588589363954
 151     0.0122578642014100
 152    -0.0057747047516659
 153     0.0000287585110034
 154     0.0000817872473667
 155     0.1273084206600122
 156     0.0027158122806023
 157    -0.0000384773771583
 158     0.0058459117692723
 159    -0.0778248810502694
 160    -0.0098297392192096
 161    -0.0508145836448946
 162    -0.0181984179207634
 163     0.0270978601109816
 164     0.2130227759468458
 165     0.4855925826945925
 166     0.0969402252118160
 167    -0.0002983916379659
 168    -0.0000668597242657
 169     0.0002542814691567
 170     0.1133498278260136
 171    -0.0003869437622089
 172     0.0000723584472807
 173    -0.6050661610657558
 174    -0.0009955871421662
 175     0.0024743155055796
 176    -0.0059853440344128
 177     0.0780558110420062
 178    -0.0100925575878886
 179    -0.0510271246950851
 180     0.0185711751294075
 181    -0.0271763362213124
 182     0.2128979129167517
 183    -0.4873695879047451
 184    -0.0993239211864680
 Sym= 141A
 Ene= 0.493565
 Spin= Alpha
 Occup= 2.000000
  1    -0.0130255041479733
  2    -0.0274710293552139
  3    -0.0277259061291764
  4     0.0240065427384636
  5    -0.0403243557147312
  6     0.0079891514027270
  7    -0.0042903172089316
  8     0.2133801876932280
  9    -0.2506396705321213
 10    -0.0637826632343357
 11     0.0143715660959372
 12    -0.0000621512036594
 13    -0.0002761755293783
 14     0.0846889423388361
 15    -0.0143811837694166
 16     0.0011379199528121
 17     0.2188004677799217
 18     0.5328014838205873
 19    -0.0148953537071670
 20    -0.0241650746827003
 21     0.0308308683311571
 22    -0.0227018978128242
 23    -0.0446984730778382
 24     0.0063798349637107
 25    -0.0144843599321426
 26     0.2008172794877924
 27    -0.2806413545641709
 28     0.0745346342654054
 29     0.0331908011801232
 30    -0.0031150924521971
 31    -0.0011612210679753
 32     0.0002423723019631
 33     0.0002057800855787
 34     0.0194818790276209
 35    -0.6180750539832125
 36    -0.0018383964322535
 37    -0.0001947738818297
 38    -0.0003711926920274
 39    -0.0006793929573620
 40     0.0001211331314438
 41    -0.0001243574901672
 42     0.0000416672857577
 43     0.0000125040143504
 44    -0.0000782008739118
 45     0.0006325255670346
 46     0.0018180238102936
 47    -0.0032109381326409
 48    -0.0001119898340686
 49     0.0001091299198375
 50     0.0000248273900089
 51     0.0000147595491187
 52    -0.0000822497143904
 53     0.0010402728095981
 54     0.0001486899531734
 55    -0.0003425181758529
 56    -0.0003092732495384
 57    -0.0001904531874324
 58    -0.0000597748736475
 59    -0.0000808016216231
 60     0.0000900276751790
 61    -0.0010592887907162
 62     0.0001847501450087
 63    -0.0002044804926057
 64     0.0003541573567663
 65     0.0000573398960333
 66    -0.0000763148275501
 67     0.0000503692431133
 68    -0.0000035446999925
 69    -0.0103216354621264
 70     0.0054331849919686
 71    -0.0050527854597127
 72     0.0053645353411025
 73    -0.0000490077045368
 74     0.0000302818716779
 75     0.0000235854198763
 76    -0.0000156015084132
 77     0.0121596351726555
 78     0.0062642739523141
 79    -0.0060715619966063
 80    -0.0067217048743301
 81     0.0000145481723926
 82    -0.0000068558314179
 83    -0.0000222716195764
 84    -0.0000263020178344
 85     0.0180797508241656
 86     0.0068447657860589
 87    -0.0149487682689903
 88    -0.0025541035349222
 89     0.0000578766590336
 90     0.0000082424176987
 91     0.0000169002251782
 92    -0.0000431645143491
 93    -0.0194494509357273
 94     0.0080835248343348
 95    -0.0165892149383403
 96     0.0015672368828416
 97     0.0000043694502414
 98    -0.0000098464962833
 99    -0.0000080997619537
 100    -0.0000096574879270
 101     0.0034418149943305
 102     0.0265199609206580
 103    -0.0134009500245036
 104    -0.0021065370567940
 105     0.0000080117876870
 106    -0.0000044909554134
 107    -0.0000085103625706
 108    -0.0000111516247160
 109    -0.0035648702590384
 110    -0.0063920116014066
 111    -0.0506620641675137
 112    -0.0020010222093253
 113     0.0000067203618911
 114     0.0000011074968681
 115     0.0000007487902852
 116    -0.0000051593984319
 117     0.0014188779903811
 118    -0.0009726521768727
 119     0.1603757385436387
 120     0.0010084420665441
 121     0.0000032916643580
 122    -0.0000004798399456
 123     0.0000033976671607
 124     0.0000047192088756
 125    -0.0006096970095403
 126     0.0013718376192366
 127     0.0003825867324998
 128     0.0000038907307168
 129     0.0008766577182038
 130    -0.0016095647217227
 131    -0.0002557367527070
 132     0.0000820465216504
 133     0.0099490251531093
 134     0.0063486408750394
 135    -0.0000584107397061
 136     0.0000834263555876
 137    -0.0116370218317060
 138    -0.0071141029976702
 139    -0.0000027557760276
 140    -0.0000770109173068
 141     0.0070585796137041
 142    -0.0068104563470025
 143    -0.0000191721196047
 144    -0.0000270954028201
 145    -0.0085921003560274
 146     0.0062152134082021
 147    -0.0000184406957031
 148     0.0000017279320606
 149    -0.0000024354836475
 150     0.0000010014490216
 151    -0.0000003376014242
 152     0.0000000989568099
 153    -0.0000023472052357
 154    -0.0000062966736290
 155    -0.0000016517544664
 156    -0.0000186137939651
 157     0.0000016260328830
 158     0.0000002433275827
 159    -0.0000009299640805
 160    -0.0000005764740634
 161    -0.0000007765084645
 162    -0.0000007020072844
 163     0.0000006420600428
 164    -0.0000000158138147
 165     0.0000072565122615
 166     0.0000050453325503
 167     0.0000021271068150
 168     0.0000004279827496
 169    -0.0000000046698448
 170     0.0000000291881977
 171     0.0000029585471634
 172    -0.0000001944148827
 173    -0.0000001330268489
 174     0.0000058367223739
 175    -0.0000177106088224
 176     0.0000004055164107
 177    -0.0000006323636452
 178     0.0000008472360739
 179     0.0000006561769750
 180    -0.0000010804453721
 181     0.0000005231943347
 182     0.0000016832689702
 183     0.0000061127089488
 184     0.0000076213156871
 Sym= 142A
 Ene= 0.496730
 Spin= Alpha
 Occup= 2.000000
  1     0.0000007496341705
  2     0.0000005039487630
  3     0.0000014663172071
  4    -0.0000006409111117
  5     0.0000022352023413
  6     0.0000001835476897
  7    -0.0000017599521764
  8    -0.0000052724300003
  9     0.0000135763869897
 10     0.0000019396878008
 11    -0.0000004885094111
 12    -0.0000000166427608
 13    -0.0000000182518682
 14    -0.0000024917908208
 15     0.0000007277257253
 16     0.0000000261879578
 17    -0.0000079110014314
 18    -0.0000162413314337
 19     0.0000003097364130
 20     0.0000012170546722
 21    -0.0000007398535566
 22     0.0000009038644553
 23     0.0000011993630267
 24    -0.0000001566219194
 25    -0.0000024717323589
 26    -0.0000078136163631
 27     0.0000065368683058
 28    -0.0000022955489158
 29    -0.0000010910209268
 30    -0.0000007048555838
 31    -0.0000002700555798
 32    -0.0000018990453561
 33    -0.0000049614509455
 34     0.0000046072666645
 35     0.0000205474324509
 36    -0.0000011949070798
 37    -0.0000733557544656
 38    -0.0000067156966882
 39     0.0000851793625742
 40     0.0000218611287940
 41    -0.0002938535401160
 42     0.0001695830368056
 43    -0.0004708668480767
 44    -0.0001956756781943
 45     0.0000447865834041
 46    -0.0000566626717651
 47     0.0000342608129111
 48     0.0000303796495036
 49     0.0005413471148064
 50    -0.0008988886777901
 51    -0.0024670587967617
 52    -0.0000824242037292
 53    -0.0002412875734209
 54     0.0000203538157815
 55    -0.0000356060683312
 56    -0.0001197819713951
 57     0.0008800976758648
 58    -0.0000461045296480
 59    -0.0002124706549614
 60     0.0002079951068573
 61     0.0000504782458467
 62     0.0000318839971017
 63     0.0000907276043715
 64    -0.0000147591769719
 65    -0.0008015086740720
 66    -0.0000689453223790
 67    -0.0000401894239682
 68    -0.0002992097253880
 69    -0.0000648427734793
 70    -0.0000271596177070
 71     0.0000336855391806
 72     0.0000103233157598
 73    -0.0080418539971223
 74    -0.0042184621104004
 75    -0.0029983992220703
 76    -0.0047323883979042
 77     0.0000484087187837
 78    -0.0000090956509635
 79     0.0000134181415585
 80     0.0000162688066141
 81     0.0089370360749525
 82    -0.0046903393674673
 83    -0.0035742271918956
 84     0.0055115209817124
 85     0.0000585607966067
 86    -0.0000129461589406
 87     0.0000183849066199
 88     0.0000350601504833
 89     0.0155419559208099
 90    -0.0048423692219168
 91    -0.0135293813329274
 92     0.0033752474850092
 93    -0.0000209267399402
 94    -0.0000037514138541
 95     0.0000049486452024
 96    -0.0000090728333203
 97    -0.0161498436738047
 98    -0.0055547745097553
 99    -0.0144727535093400
 100    -0.0029364502100541
 101     0.0000003315897928
 102     0.0000013535972097
 103    -0.0000026246876068
 104     0.0000062761625580
 105     0.0020895192592911
 106    -0.0246452078518252
 107    -0.0081382163847000
 108     0.0014711188678130
 109     0.0000058495572582
 110    -0.0000007534916028
 111     0.0000035323203242
 112     0.0000040661088039
 113    -0.0022561778226953
 114     0.0056928264591298
 115    -0.0557082980407072
 116     0.0011615531528540
 117     0.0000022121485545
 118    -0.0000003937314464
 119    -0.0000065479319009
 120    -0.0000041300933848
 121     0.0018124651177024
 122     0.0012405286403013
 123     0.1655664319813226
 124    -0.0000924573334487
 125     0.0002716649712368
 126     0.0000246607671565
 127    -0.0004538283697180
 128     0.0009164280417935
 129    -0.0001260566336623
 130     0.0000654289122076
 131     0.0006799423971844
 132    -0.0010376535680789
 133    -0.0000385960297330
 134     0.0000543232190583
 135     0.0068263330262285
 136     0.0052697381775592
 137     0.0000044468898452
 138    -0.0000398922690011
 139    -0.0077425882786853
 140    -0.0056575421351761
 141    -0.0000306399349246
 142    -0.0000259575251515
 143     0.0061139018137413
 144    -0.0084267171743145
 145     0.0000098682225596
 146     0.0000113125924969
 147    -0.0070685090841334
 148     0.0080297226821046
 149    -0.0736101130067330
 150     0.0330056752978371
 151    -0.0030012845943276
 152     0.0011280673656550
 153    -0.0001650507083265
 154    -0.0008685047530132
 155    -0.0191759167221108
 156    -0.6205808020786252
 157     0.0019779140845637
 158     0.0127370348543748
 159    -0.0275922870268125
 160    -0.0276829955132159
 161    -0.0242225113309870
 162    -0.0403751615172485
 163     0.0090044927182206
 164     0.0030751449235753
 165     0.2136929731612200
 166     0.2490057055911024
 167     0.0634578317133892
 168     0.0146174829394578
 169    -0.0000717601855991
 170     0.0001572819957018
 171     0.0849179417177406
 172    -0.0163211790227122
 173    -0.0005446791468881
 174     0.2206438848268479
 175    -0.5293325548185412
 176     0.0145645601975640
 177    -0.0244974261379160
 178     0.0306953346456512
 179     0.0230464748670985
 180    -0.0446719876427646
 181     0.0075781194119641
 182     0.0149056580937908
 183     0.2023480414839639
 184     0.2781256456959438
 Sym= 143A
 Ene= 0.505619
 Spin= Alpha
 Occup= 2.000000
  1     0.0289073805487040
  2    -0.0385902183879694
  3     0.0472490046733936
  4     0.0114194422817599
  5     0.0694446058008756
  6     0.0175536163780405
  7    -0.2557762136131517
  8     0.1132549902059292
  9     0.4620108011643287
 10     0.0020494632183620
 11    -0.0005037467561146
 12    -0.0029029481872894
 13     0.0078473736893017
 14    -0.0028017726141673
 15     0.0006312482029674
 16    -0.0493408613829086
 17    -0.0074351406749492
 18    -0.0172383996733144
 19    -0.0280596453303662
 20     0.0403279782030944
 21     0.0453361807700150
 22     0.0130150551761500
 23    -0.0666231426877654
 24    -0.0181855898512959
 25    -0.2553121143955536
 26    -0.1271068278874651
 27    -0.4447719455214769
 28    -0.0018794764193209
 29    -0.0010551940804245
 30    -0.0770704612246575
 31    -0.0343646644001332
 32    -0.0000256589084239
 33    -0.0000527481552332
 34     0.6082708623116158
 35     0.0206415637419727
 36     0.0000384785593508
 37    -0.0000041999720389
 38    -0.0005370345228581
 39    -0.0001554807679172
 40     0.0000022745324766
 41    -0.0000009489633154
 42     0.0000386156587051
 43     0.0001005580930771
 44    -0.0000007221483961
 45    -0.0000076402119956
 46     0.0023691540688148
 47    -0.0016531125481645
 48     0.0000098734998286
 49     0.0000008301238843
 50     0.0000445897249831
 51     0.0000274264668167
 52    -0.0000006718716851
 53     0.0005588988150260
 54     0.0002082823376295
 55     0.0000781237092556
 56    -0.0002154555920465
 57     0.0000157959999946
 58    -0.0000784801923069
 59     0.0001033970768941
 60    -0.0000353026900988
 61    -0.0005536680179799
 62     0.0002083970130596
 63     0.0000787281773884
 64     0.0002130034718714
 65    -0.0000163593994820
 66    -0.0000783951604930
 67     0.0001041903501981
 68     0.0000358294676059
 69    -0.0089094667774341
 70     0.0030133246613924
 71    -0.0058214346292254
 72     0.0043609887858582
 73    -0.0000515751394101
 74     0.0000153549033818
 75     0.0000179920801396
 76     0.0000090034157249
 77     0.0088170651220860
 78     0.0029824139736158
 79    -0.0057819886871080
 80    -0.0043141043887486
 81     0.0000512386020737
 82     0.0000150669618161
 83     0.0000177297550652
 84    -0.0000094047296134
 85     0.0138231744304810
 86     0.0111988081334078
 87    -0.0074212304749929
 88    -0.0009938725805898
 89     0.0000287171195437
 90     0.0000048147863775
 91     0.0000072141708074
 92    -0.0000168976860186
 93    -0.0138388172489499
 94     0.0111534573995970
 95    -0.0073627651553065
 96     0.0010607087710748
 97    -0.0000280979605389
 98     0.0000047054512294
 99     0.0000070410303873
 100     0.0000164160149410
 101    -0.0001167392121507
 102    -0.0014009138959946
 103    -0.0261559703323860
 104     0.0000889063605268
 105    -0.0000000448314201
 106    -0.0000014174466352
 107    -0.0000028183085336
 108    -0.0000001265000709
 109     0.0001349041890865
 110     0.0517839144273571
 111     0.0096400822634841
 112     0.0000773450952606
 113     0.0000001445330885
 114    -0.0000000553189242
 115     0.0000022075164681
 116    -0.0000000964373258
 117    -0.0000235480750587
 118    -0.1568554852299854
 119    -0.0092815039520468
 120    -0.0000719156109171
 121     0.0000000315089200
 122     0.0000024805981214
 123    -0.0000027925479711
 124     0.0000000915071369
 125    -0.0006662474616989
 126     0.0010545048046747
 127     0.0000782856582977
 128    -0.0001021183194914
 129     0.0006632274914626
 130    -0.0010496621127760
 131    -0.0000765309245846
 132     0.0001022208743201
 133     0.0087446047420320
 134     0.0051703412691830
 135    -0.0000124286571047
 136     0.0000314113423594
 137    -0.0086913324782316
 138    -0.0051206455680800
 139     0.0000118693579980
 140    -0.0000311123411221
 141     0.0059321871178946
 142    -0.0041846752293331
 143    -0.0000139941233556
 144    -0.0000140564208970
 145    -0.0057788211551549
 146     0.0040626000577829
 147     0.0000137267531173
 148     0.0000138245649236
 149     0.0000006305093978
 150    -0.0000003395532832
 151    -0.0000016011505117
 152     0.0000006801962315
 153    -0.0000000400701374
 154    -0.0000001007221175
 155    -0.0000119844685537
 156     0.0000066193935553
 157     0.0000000070325441
 158    -0.0000006989907650
 159    -0.0000005041944409
 160     0.0000012223533581
 161     0.0000000116145599
 162     0.0000017983765727
 163     0.0000002409814871
 164     0.0000051184715758
 165     0.0000001780752470
 166    -0.0000116936590138
 167    -0.0000006539774434
 168    -0.0000001613951322
 169    -0.0000000568205712
 170    -0.0000001507731365
 171    -0.0000008922653555
 172     0.0000002114095034
 173     0.0000009387905527
 174    -0.0000023920012304
 175     0.0000054885236970
 176     0.0000004245967507
 177     0.0000010620656131
 178     0.0000006046160513
 179    -0.0000004997407117
 180    -0.0000008840842067
 181    -0.0000004389120001
 182     0.0000049875826980
 183    -0.0000046019395836
 184     0.0000061398707773
 Sym= 144A
 Ene= 0.508785
 Spin= Alpha
 Occup= 2.000000
  1    -0.0000005332404262
  2     0.0000007485338967
  3    -0.0000008586504840
  4    -0.0000002291976220
  5    -0.0000012674419678
  6    -0.0000003077532477
  7     0.0000048651774581
  8    -0.0000022329761691
  9    -0.0000084474655983
 10     0.0000000332806080
 11    -0.0000000101483908
 12     0.0000000596377953
 13    -0.0000001980571701
 14    -0.0000000387517459
 15     0.0000000365497703
 16     0.0000011843203755
 17    -0.0000001872203040
 18    -0.0000002691865431
 19     0.0000005611387266
 20    -0.0000007120050526
 21    -0.0000009122671977
 22    -0.0000001977746786
 23     0.0000013572022801
 24     0.0000003143753197
 25     0.0000048189293323
 26     0.0000019878687445
 27     0.0000089281554739
 28    -0.0000000941026032
 29    -0.0000000203758123
 30     0.0000014467497632
 31     0.0000006550320370
 32    -0.0000001048454209
 33    -0.0000002703212132
 34    -0.0000117230542473
 35     0.0000003772185705
 36    -0.0000000647126048
 37    -0.0000029590587826
 38    -0.0000025959725911
 39     0.0002350376188047
 40     0.0000021581630939
 41    -0.0000128121506121
 42     0.0004155262784913
 43     0.0002597620143666
 44    -0.0000080307192610
 45     0.0000025176471161
 46    -0.0001108880768586
 47     0.0000782457855552
 48     0.0000018551636846
 49     0.0000185588364979
 50    -0.0017919340611610
 51    -0.0006338412650132
 52    -0.0000071620273091
 53     0.0000662305807414
 54     0.0000479862794185
 55     0.0002405295034260
 56     0.0000720192327047
 57     0.0002312419361177
 58    -0.0001332242137382
 59     0.0003689683584334
 60     0.0001258412019338
 61    -0.0000756515301744
 62     0.0000486188830122
 63     0.0002459228729983
 64    -0.0000775456829818
 65    -0.0002242687284487
 66    -0.0001350626959610
 67     0.0003743496560005
 68    -0.0001274948880900
 69    -0.0001061850412145
 70    -0.0000384619431561
 71     0.0000661884734618
 72    -0.0000069582238202
 73    -0.0066830715232650
 74    -0.0012018110521467
 75    -0.0041344754782984
 76    -0.0036031280208621
 77     0.0001054339530687
 78    -0.0000374081053165
 79     0.0000649772434542
 80     0.0000087811893752
 81     0.0066733658279630
 82    -0.0012078759990537
 83    -0.0041398943150627
 84     0.0036100675010243
 85     0.0000609866112023
 86    -0.0000258219367037
 87     0.0000284266760202
 88     0.0000292076435747
 89     0.0115783405507451
 90    -0.0104250875587353
 91    -0.0048955506601481
 92     0.0019186928340865
 93    -0.0000587234575445
 94    -0.0000252444302256
 95     0.0000276159604519
 96    -0.0000277028807881
 97    -0.0116451634177816
 98    -0.0104319643055231
 99    -0.0049064281778035
 100    -0.0019380543713637
 101     0.0000000174382822
 102    -0.0000058460432256
 103     0.0000118973735919
 104     0.0000003919483784
 105     0.0000214846780065
 106     0.0056953801090266
 107    -0.0239899322949895
 108     0.0000001906631178
 109     0.0000003603077558
 110    -0.0000009189065163
 111    -0.0000013938910035
 112     0.0000002410276260
 113    -0.0000078605781822
 114    -0.0563797584627149
 115     0.0088904213611732
 116     0.0000105644223644
 117     0.0000001125460319
 118     0.0000032313791192
 119     0.0000002525648187
 120    -0.0000002391410491
 121    -0.0000120674705084
 122     0.1622083554555148
 123    -0.0087869904390345
 124     0.0000328707787529
 125    -0.0001403621646119
 126    -0.0001446022107221
 127    -0.0005802449837359
 128     0.0005906723495180
 129     0.0001472937749848
 130     0.0001488856298071
 131     0.0005879192120314
 132    -0.0005975420252962
 133    -0.0000177692608744
 134    -0.0000101190573100
 135     0.0056773497240970
 136     0.0039974928663594
 137     0.0000156468628863
 138     0.0000105393342923
 139    -0.0057029407175961
 140    -0.0039795817012242
 141    -0.0000584776857622
 142    -0.0000314128957134
 143     0.0046215997101193
 144    -0.0055392472201005
 145     0.0000571546747270
 146     0.0000305559132787
 147    -0.0045358148284162
 148     0.0053656468761976
 149     0.0017439208746240
 150    -0.0009863011189319
 151    -0.0765752400007974
 152     0.0343538774195480
 153    -0.0000108809707473
 154    -0.0000111138994365
 155    -0.6131887794079224
 156     0.0194035159567583
 157     0.0000002716420957
 158    -0.0289480041348022
 159    -0.0374953691458604
 160     0.0470718109342823
 161    -0.0104951978173977
 162     0.0698001414139461
 163     0.0157441230419079
 164     0.2533562677559242
 165     0.1045099252626769
 166    -0.4604873810291835
 167    -0.0019179957943314
 168    -0.0004811594230923
 169    -0.0031445093156376
 170    -0.0101413222423174
 171    -0.0026341200183859
 172     0.0006483591145465
 173     0.0602921337284479
 174    -0.0070244871615138
 175     0.0160729117107380
 176     0.0281691083233213
 177     0.0391367622226340
 178     0.0452901782932003
 179    -0.0120097594141371
 180    -0.0671552920559239
 181    -0.0164195990291209
 182     0.2528118760965644
 183    -0.1175348578431429
 184     0.4443830984985788
 Sym= 145A
 Ene= 0.528661
 Spin= Alpha
 Occup= 2.000000
  1    -0.0049841399952371
  2    -0.0000701596143003
  3    -0.0086911746632421
  4    -0.0008992973188575
  5    -0.0180903678705076
  6    -0.0184892899517876
  7    -0.0320418697009404
  8    -0.0213094585665838
  9    -0.0750298632496201
 10     0.0105635357213975
 11     0.0004889242676524
 12    -0.0000007459496374
 13     0.0000014165921444
 14    -0.0192434258707206
 15    -0.0148072260096945
 16    -0.0000093573943644
 17     0.0346458422074581
 18    -0.0801594512022252
 19    -0.0049887183926037
 20    -0.0000655684637506
 21     0.0086975863695799
 22     0.0009003039340912
 23    -0.0181010713572793
 24    -0.0184943973118491
 25     0.0320066753678641
 26    -0.0213204664308579
 27    -0.0750953296526279
 28    -0.0003069694043391
 29    -0.0000195749469822
 30    -0.0000010554058779
 31    -0.0000015182129370
 32     0.1166388156464215
 33     0.2938308426317475
 34     0.0000538258976828
 35     0.0033575796810043
 36     0.0656243209360925
 37     0.0057965960350926
 38     0.0000128288832712
 39     0.0000342215241031
 40     0.0045700345653332
 41    -0.0029800931175492
 42    -0.0000025047682524
 43     0.0000125971661314
 44    -0.0049363863411664
 45     0.0356392721134179
 46    -0.0000526709441895
 47     0.0000606734324869
 48    -0.0198338536701382
 49     0.0046732959560238
 50     0.0000042128385252
 51     0.0000024173345326
 52    -0.0033987349325473
 53    -0.0102032189481250
 54    -0.0022882539274824
 55     0.0004773260767087
 56     0.0064126155387291
 57    -0.0053277954159906
 58     0.0008709062598721
 59    -0.0022431400454022
 60     0.0021687374459653
 61    -0.0101632169471580
 62     0.0022809398655006
 63    -0.0004245695111620
 64     0.0064020856555241
 65    -0.0053393880203940
 66    -0.0008668672196490
 67     0.0022713789251572
 68     0.0021761151762413
 69     0.1743580060587241
 70    -0.0635372710734930
 71     0.0775548954507479
 72    -0.0744105942025447
 73    -0.0002959504410705
 74     0.0009345948291145
 75     0.0013460058409019
 76    -0.0012257520901224
 77     0.1741968167465466
 78     0.0633881221920277
 79    -0.0773502091098325
 80    -0.0743641874137981
 81    -0.0002884903690302
 82    -0.0009317512658332
 83    -0.0013405543447466
 84    -0.0012264979971040
 85    -0.1361888066573375
 86    -0.0873474296869102
 87     0.1161632704965136
 88    -0.0662522805540165
 89     0.0012738540087231
 90     0.0006223502761185
 91     0.0007936472140561
 92    -0.0010535723612414
 93    -0.1359372221479209
 94     0.0871622862170628
 95    -0.1158691435527041
 96    -0.0663163205239225
 97     0.0012707466428010
 98    -0.0006201706468885
 99    -0.0007920030163086
 100    -0.0010519217936913
 101     0.4692791471056524
 102    -0.0001725170005494
 103     0.0002005228413951
 104    -0.2062581562712062
 105     0.0010262360986984
 106     0.0000004784589337
 107     0.0000007129104449
 108    -0.0003907472737908
 109    -0.4375928329073262
 110     0.0000794701331278
 111     0.0003167319518155
 112    -0.2611522837673870
 113    -0.0001697595907832
 114    -0.0000000463915878
 115    -0.0000000084113982
 116     0.0000767792744950
 117    -0.0979118665991313
 118    -0.0000509973972107
 119    -0.0008756830327741
 120     0.2904929545404509
 121    -0.0000406684056810
 122     0.0000000297270540
 123    -0.0000004017199422
 124    -0.0001639620933124
 125     0.0155209006001048
 126    -0.0182619794149067
 127     0.0009748220901632
 128     0.0030618330676523
 129     0.0155340982588965
 130    -0.0182260146908539
 131     0.0010105231737217
 132     0.0030752669031926
 133    -0.1540024015736107
 134    -0.0713503663555497
 135    -0.0016268243263442
 136    -0.0006781533204632
 137    -0.1537423287980147
 138    -0.0712174520056850
 139    -0.0016269844157760
 140    -0.0006729350283366
 141    -0.0809695541040317
 142    -0.0267728227793304
 143    -0.0011434323032756
 144    -0.0005816764020548
 145    -0.0807834163152781
 146    -0.0267941335741812
 147    -0.0011389116677275
 148    -0.0005798911656481
 149     0.0000001702113036
 150     0.0000000008498609
 151     0.0000000047720068
 152    -0.0000000348788093
 153     0.0000632380997694
 154     0.0001586565131426
 155     0.0000000069366797
 156     0.0000017800001862
 157    -0.0000340289488945
 158     0.0000027406485701
 159    -0.0000000509897549
 160    -0.0000047773554298
 161     0.0000005057921314
 162    -0.0000098050781036
 163    -0.0000102433441348
 164     0.0000173303003756
 165    -0.0000115230155059
 166     0.0000406245647186
 167    -0.0000057902760427
 168     0.0000002930126007
 169    -0.0000000007201784
 170     0.0000000009740004
 171    -0.0000104088256755
 172    -0.0000082876582966
 173    -0.0000000039547011
 174     0.0000188018090992
 175     0.0000432905195403
 176     0.0000027395326381
 177    -0.0000000554981140
 178     0.0000047739894853
 179    -0.0000005049752945
 180    -0.0000097982819558
 181    -0.0000102617729103
 182    -0.0000173596639190
 183    -0.0000115131311373
 184     0.0000406020020604
 Sym= 146A
 Ene= 0.549534
 Spin= Alpha
 Occup= 2.000000
  1     0.0002430303875595
  2    -0.0008684822647149
  3     0.0001474565457838
  4     0.0004811743358611
  5     0.0002933692172513
  6     0.0003609902220660
  7    -0.0030609145918983
  8     0.0041339904354582
  9     0.0021638712795473
 10    -0.0008702236168589
 11     0.0002872924322566
 12    -0.0000843360063605
 13     0.0003383560525930
 14     0.0013322116136759
 15    -0.0005877568449506
 16    -0.0017747962656625
 17     0.0038570569752667
 18     0.0075494097231636
 19    -0.0005204706485648
 20    -0.0000071921395951
 21     0.0010027424634761
 22    -0.0003627928975564
 23    -0.0016259781330044
 24     0.0002417999031220
 25    -0.0035107402948115
 26     0.0027111613856082
 27    -0.0096729042893551
 28    -0.0001490764109749
 29     0.0004282923749630
 30    -0.0001689544754704
 31    -0.0004232728905000
 32    -0.0000080747269122
 33    -0.0000225614348724
 34     0.0088544977893424
 35    -0.0100600727335891
 36    -0.0000306965035546
 37    -0.0000263482633443
 38     0.0679334030856503
 39     0.2642325330656371
 40    -0.0000963652834804
 41     0.0000160838937853
 42    -0.0108907413548685
 43     0.0783555346324555
 44    -0.0000074811734009
 45     0.0002336914141660
 46    -0.2600528177015999
 47     0.2567576770163231
 48    -0.0001510663942716
 49     0.0000035451733802
 50     0.0297437944420746
 51     0.0177637215449844
 52     0.0000043875776601
 53    -0.1545757156461157
 54    -0.0191168210706328
 55     0.1850609363054198
 56     0.0073137319960374
 57     0.0912131106952750
 58     0.0049473832422486
 59     0.1167395504869916
 60    -0.0464541539692294
 61     0.1547395501393970
 62    -0.0191280038864481
 63     0.1850368771138908
 64    -0.0074429270299198
 65    -0.0911886604057249
 66     0.0049658228331980
 67     0.1167191717115616
 68     0.0464250487462990
 69    -0.1926926401111553
 70    -0.1473070386186006
 71     0.2152216159930931
 72     0.0301821454440157
 73    -0.0252586202324015
 74     0.0083244440245569
 75     0.0192037032063562
 76     0.0034376102529902
 77     0.1921411136260994
 78    -0.1472794183833800
 79     0.2152366337006519
 80    -0.0303976162333464
 81     0.0252635079822833
 82     0.0083197569619125
 83     0.0191974324343979
 84    -0.0034286525430890
 85     0.1677244506404136
 86    -0.1196003017709734
 87     0.1504806616326474
 88     0.0534165779934174
 89     0.0107422638929875
 90     0.0076917310316270
 91     0.0071681806794399
 92    -0.0042190081335915
 93    -0.1674141638621812
 94    -0.1196011565375592
 95     0.1505053402853319
 96    -0.0535190842298883
 97    -0.0107523361560765
 98     0.0076843750799793
 99     0.0071605666433797
 100     0.0042267547569171
 101    -0.0001602165332641
 102    -0.0633763324962062
 103     0.0883259941014889
 104    -0.0000706796958067
 105     0.0000183882221452
 106     0.0028118953222456
 107     0.0055403253952949
 108     0.0000102844631374
 109     0.0000062537115625
 110     0.0167009167430804
 111    -0.0233732172105853
 112    -0.0000024131838164
 113    -0.0000194602949697
 114    -0.0003855440158189
 115    -0.0010882754401056
 116     0.0000114840682108
 117     0.0000190374965252
 118    -0.0086094383279017
 119     0.0116377595198115
 120    -0.0000251132786206
 121    -0.0000028261287919
 122     0.0001488324305009
 123     0.0005432637639842
 124    -0.0000119313870082
 125    -0.0819576965797504
 126    -0.0389227308058657
 127    -0.1422456022616315
 128    -0.0662846973477599
 129     0.0817854496309638
 130     0.0388798459737734
 131     0.1422297103519050
 132     0.0662714259098412
 133    -0.1477738294310159
 134    -0.0547206093314946
 135     0.0008681088283963
 136    -0.0191068125574156
 137     0.1482175237081643
 138     0.0549078189870721
 139    -0.0008693388476842
 140     0.0191018281768430
 141    -0.2365974995008918
 142    -0.1158135812580551
 143    -0.0163128185097939
 144    -0.0063429931044805
 145     0.2363438187832135
 146     0.1156956566000193
 147     0.0163038448414331
 148     0.0063401955050598
 149     0.0000262614255102
 150     0.0000136270387121
 151     0.0000244934996508
 152    -0.0000019996804089
 153     0.0000045680415125
 154     0.0000111941616568
 155     0.0000346545692663
 156    -0.0003235615636744
 157    -0.0000016248229775
 158     0.0000062402785469
 159    -0.0000104311606926
 160    -0.0000171245737148
 161    -0.0000121541028668
 162    -0.0000264947462897
 163     0.0000097766754089
 164    -0.0000254378505172
 165     0.0000991062671115
 166     0.0001503307921448
 167     0.0000259031027760
 168     0.0000088799205874
 169     0.0000000653982253
 170     0.0000021466936838
 171     0.0000401075915819
 172    -0.0000137096313422
 173    -0.0000095122431088
 174     0.0001169879054333
 175    -0.0002309172718079
 176     0.0000019519422389
 177    -0.0000157604014302
 178     0.0000098457960347
 179     0.0000132968261223
 180    -0.0000158525989423
 181     0.0000021693955221
 182    -0.0000158437155748
 183     0.0001068551536403
 184     0.0000886293522264
 Sym= 147A
 Ene= 0.553671
 Spin= Alpha
 Occup= 2.000000
  1    -0.0000543364933600
  2    -0.0000029899066530
  3    -0.0000948237209207
  4    -0.0000112858246696
  5    -0.0001768760798064
  6    -0.0002281670740135
  7    -0.0003120539303959
  8    -0.0002020210679910
  9    -0.0007338169874055
 10     0.0001119853623770
 11     0.0000084460579139
 12    -0.0000000094464858
 13     0.0000000296170081
 14    -0.0001848380570772
 15    -0.0001915278324185
 16    -0.0000001533610822
 17     0.0003410134293611
 18    -0.0007621081626237
 19    -0.0000544061343052
 20    -0.0000029197882874
 21     0.0000949250547898
 22     0.0000112954031436
 23    -0.0001770370324479
 24    -0.0002282272576593
 25     0.0003115092502818
 26    -0.0002021281818385
 27    -0.0007348976809629
 28    -0.0000008265873982
 29     0.0000007549597617
 30    -0.0000000276494173
 31     0.0000001056700325
 32     0.0010435689765184
 33     0.0027406435167459
 34     0.0000008104698985
 35     0.0000157119376920
 36     0.0003700649772249
 37    -0.0058720113032268
 38    -0.0000004926778946
 39     0.0000004885327020
 40    -0.0095547196403906
 41    -0.0013747244350879
 42     0.0000054437503292
 43    -0.0000169631089922
 44     0.0011404448005534
 45     0.0110354181911293
 46    -0.0000072802095266
 47     0.0000081651244974
 48    -0.0114793371943217
 49    -0.0515017603514352
 50    -0.0000260261830266
 51    -0.0000262654423734
 52    -0.0282342802910528
 53     0.0148597135437124
 54     0.0008684870811448
 55     0.0017546023738106
 56    -0.0022169559098008
 57     0.0035154616009085
 58    -0.0021017887553027
 59    -0.0002651040994572
 60     0.0043908857711091
 61     0.0148793144814928
 62    -0.0008697087643457
 63    -0.0017627766236139
 64    -0.0022119880711737
 65     0.0034869170704801
 66     0.0021007835300521
 67     0.0002448025224397
 68     0.0043894316728126
 69    -0.0124788158408731
 70    -0.0000593134725465
 71     0.0003604234790143
 72    -0.0101445914450387
 73    -0.1537546853230252
 74    -0.0605923374559319
 75    -0.0744522365948217
 76    -0.0847700567469294
 77    -0.0124736329656387
 78     0.0000502030874215
 79    -0.0003439881031766
 80    -0.0101462591745241
 81    -0.1536551448940724
 82     0.0605337650134579
 83     0.0743336108890805
 84    -0.0847381127475152
 85     0.0044594197258338
 86    -0.0007138319668348
 87     0.0008208339117043
 88    -0.0051910962876335
 89     0.1192082804646609
 90    -0.0871114965611520
 91    -0.1156059935087136
 92    -0.0697670689549982
 93     0.0044533367583775
 94     0.0007055418701361
 95    -0.0008078575032484
 96    -0.0051932582367736
 97     0.1190609336285692
 98     0.0869924409680158
 99     0.1154630849753099
 100    -0.0697949499103023
 101    -0.0022246785695391
 102    -0.0000028100102760
 103     0.0000056449051362
 104    -0.0067898613823770
 105    -0.4708189660052846
 106    -0.0000354037050493
 107    -0.0001546818406803
 108    -0.2426681198683663
 109    -0.0049561554822015
 110     0.0000012441260344
 111     0.0000010508852778
 112    -0.0031281489959301
 113     0.4652398948238022
 114     0.0000068501469266
 115    -0.0001099175571386
 116    -0.2685087220926763
 117    -0.0009080224744468
 118    -0.0000007093746117
 119    -0.0000038809850524
 120     0.0025795336554763
 121     0.0759011567884574
 122    -0.0000011859999921
 123     0.0003799850091014
 124     0.2910952352210122
 125    -0.0082904988332198
 126    -0.0052679569424155
 127    -0.0101897230428610
 128     0.0171435488608749
 129    -0.0083086125438686
 130    -0.0052744724161155
 131    -0.0101905854161059
 132     0.0171317094616410
 133     0.0112526217204942
 134     0.0045805803885777
 135     0.1345905610751919
 136     0.0629273623704172
 137     0.0112650738407316
 138     0.0045829453402704
 139     0.1344543772332641
 140     0.0628567323365189
 141    -0.0060561894603623
 142    -0.0025591803883243
 143     0.0927730699632663
 144     0.0327617362004104
 145    -0.0060419107991785
 146    -0.0025527265408478
 147     0.0926788964447485
 148     0.0327745302648678
 149    -0.0000695567365857
 150    -0.0000742266145122
 151    -0.0000093763737202
 152     0.0000045061056818
 153    -0.1100720982779704
 154    -0.2732675085232042
 155    -0.0000569151598128
 156    -0.0014649098166167
 157     0.0542502197541840
 158    -0.0049567537964645
 159     0.0002106118992674
 160     0.0086501524045082
 161    -0.0009574000133445
 162     0.0169661894807629
 163     0.0188446212890307
 164    -0.0296542396688849
 165     0.0192510693626812
 166    -0.0700605414800891
 167     0.0102043420361089
 168    -0.0006711364813890
 169     0.0000004142442529
 170    -0.0000038280245120
 171     0.0176995160433146
 172     0.0153423371168832
 173     0.0000142262191568
 174    -0.0324972771851241
 175    -0.0725547533319306
 176    -0.0049509162472969
 177     0.0002205857984641
 178    -0.0086392441321843
 179     0.0009563515350137
 180     0.0169485820581392
 181     0.0188624742799788
 182     0.0297238907402303
 183     0.0192386476683525
 184    -0.0699526878963758
 Sym= 148A
 Ene= 0.556179
 Spin= Alpha
 Occup= 2.000000
  1    -0.0011366425420947
  2    -0.0000705804130180
  3    -0.0019829382825962
  4    -0.0002462172474415
  5    -0.0035836918061185
  6    -0.0050117130731184
  7    -0.0063372846927348
  8    -0.0040998257567163
  9    -0.0149006528402308
 10     0.0023392208504546
 11     0.0001911069116070
 12    -0.0000000960897691
 13     0.0000004961478665
 14    -0.0037436110144089
 15    -0.0042702361511175
 16    -0.0000021156537796
 17     0.0069250902021760
 18    -0.0154663324366119
 19    -0.0011378104429711
 20    -0.0000694761702660
 21     0.0019847615105249
 22     0.0002463597982056
 23    -0.0035861344663143
 24    -0.0050133868308344
 25     0.0063288626507852
 26    -0.0041010335453843
 27    -0.0149205482017282
 28    -0.0000145261221325
 29     0.0000161031153232
 30    -0.0000014930817746
 31     0.0000047142057299
 32     0.0199469911940998
 33     0.0543022350788722
 34     0.0000129318445188
 35     0.0003145399643506
 36     0.0051167996370541
 37    -0.1153906914143285
 38    -0.0000671893130060
 39    -0.0001928618114651
 40    -0.1193843993651152
 41     0.0269343331642318
 42     0.0000058132977873
 43    -0.0000693209757817
 44    -0.0263706644833413
 45     0.3289999949632889
 46     0.0001351054976848
 47    -0.0001214789132382
 48    -0.2369176309815186
 49    -0.0003888178384422
 50    -0.0000299688382049
 51    -0.0000203978054550
 52    -0.0107786111507148
 53     0.1516108641335158
 54     0.0013767682751341
 55    -0.0084651301157412
 56    -0.0960100427089072
 57    -0.0278399240816500
 58     0.0002084049640917
 59    -0.0033729560242539
 60    -0.0233355901892806
 61     0.1514102772509683
 62    -0.0013885688491740
 63     0.0081838017929889
 64    -0.0960057697984496
 65    -0.0277147064324382
 66    -0.0002247323932053
 67     0.0031781152825254
 68    -0.0233997913890770
 69    -0.3115224230022184
 70    -0.0130898401562997
 71     0.0263232749386777
 72    -0.2095920273702185
 73     0.0153440062011792
 74     0.0027814359648504
 75     0.0027140663538406
 76    -0.0043116266689869
 77    -0.3118042723349515
 78     0.0132503694724136
 79    -0.0264805701942257
 80    -0.2095471370515702
 81     0.0152887007896672
 82    -0.0027978078144076
 83    -0.0027521686426881
 84    -0.0043076772660861
 85     0.1895295722488858
 86    -0.0254614339267509
 87     0.0300841618669086
 88    -0.1321555387830340
 89    -0.0031794933578248
 90     0.0038129696080003
 91     0.0052845645855445
 92     0.0003736898335499
 93     0.1897798184754539
 94     0.0255815924547039
 95    -0.0301753546786999
 96    -0.1320908071851278
 97    -0.0031486256769856
 98    -0.0038252990847697
 99    -0.0052970669253773
 100     0.0003650293026551
 101    -0.1077863897440505
 102     0.0000267336773002
 103     0.0000116076074388
 104    -0.1721023440790801
 105     0.0198767420573658
 106    -0.0000019313767326
 107    -0.0000001528706653
 108     0.0086768808310342
 109    -0.0993659159177463
 110     0.0000037072259479
 111     0.0000496323452527
 112    -0.0657276446668599
 113    -0.0182104043432909
 114     0.0000002456887810
 115     0.0000051432266009
 116     0.0103660158565784
 117    -0.0198858168985969
 118    -0.0000046094922654
 119    -0.0000885459559411
 120     0.0469426375083955
 121    -0.0027918719641365
 122     0.0000001186524698
 123    -0.0000142851220716
 124    -0.0113863523404700
 125    -0.1230729007751182
 126    -0.0339931593893836
 127     0.0351635152949772
 128     0.0101527182775997
 129    -0.1232162939882505
 130    -0.0340532760458781
 131     0.0349411086628220
 132     0.0100500559648118
 133     0.2478647060015624
 134     0.1061759783703644
 135    -0.0154953583124595
 136    -0.0021275145703033
 137     0.2477262288849459
 138     0.1061295258773091
 139    -0.0154940653489204
 140    -0.0021550454013188
 141    -0.2041087258875459
 142    -0.0914220207129936
 143    -0.0033549288758578
 144    -0.0018212060690341
 145    -0.2043718216037805
 146    -0.0915635636469495
 147    -0.0033870074401652
 148    -0.0018368408374083
 149     0.0000021354472708
 150     0.0000030557153544
 151     0.0000002031106695
 152    -0.0000001795095394
 153     0.0042537054988990
 154     0.0104936513719752
 155     0.0000011699052925
 156     0.0000529694535726
 157    -0.0021054025325332
 158     0.0001902591732548
 159    -0.0000083511964603
 160    -0.0003320461237242
 161     0.0000369457218630
 162    -0.0006500835223509
 163    -0.0007197784888368
 164     0.0011359636566219
 165    -0.0007363704426472
 166     0.0026816611142953
 167    -0.0003912800107494
 168     0.0000260541679497
 169    -0.0000000156023360
 170     0.0000001042654224
 171    -0.0006777642679347
 172    -0.0005847903900280
 173    -0.0000003681253193
 174     0.0012444290720875
 175     0.0027739738605933
 176     0.0001901301844982
 177    -0.0000086265128846
 178     0.0003317921907617
 179    -0.0000369203605233
 180    -0.0006496355678716
 181    -0.0007204933237996
 182    -0.0011378381437292
 183    -0.0007360299017766
 184     0.0026791845413417
 Sym= 149A
 Ene= 0.572362
 Spin= Alpha
 Occup= 2.000000
  1     0.0001278175194632
  2    -0.0004220001938525
  3     0.0000715102117103
  4     0.0002288316780943
  5     0.0001557307729011
  6     0.0001650992074428
  7    -0.0014874635227018
  8     0.0019102708039639
  9     0.0010996476513375
 10    -0.0003893146060481
 11     0.0001473967927992
 12    -0.0000485122573129
 13     0.0001913202703175
 14     0.0006282796327075
 15    -0.0003828568148720
 16    -0.0009652290649774
 17     0.0019222248148185
 18     0.0034090835390100
 19    -0.0002378106483146
 20    -0.0000081830550433
 21     0.0004630944658705
 22    -0.0001931452642941
 23    -0.0007854614224855
 24     0.0002250594402208
 25    -0.0017657414885108
 26     0.0014004776483243
 27    -0.0044955428033382
 28    -0.0002009324435893
 29     0.0001841554008388
 30     0.0000389044459010
 31    -0.0001935093148445
 32    -0.0000024566494063
 33    -0.0000050381318099
 34     0.0043488930593360
 35    -0.0047203207629628
 36    -0.0000140822037550
 37     0.0000994146217075
 38     0.0104253152691086
 39    -0.0418071136312841
 40     0.0000541042168830
 41    -0.0000480204278641
 42     0.0554479657161620
 43    -0.3237181589949834
 44    -0.0000203569027458
 45    -0.0001057366812711
 46    -0.0475262944285086
 47     0.0675394298233373
 48     0.0000696570263653
 49     0.0000084108092592
 50    -0.2258956802292446
 51    -0.1961426992408705
 52    -0.0000285551915877
 53    -0.1880270162973841
 54    -0.0039468891995236
 55    -0.1421596140319580
 56    -0.0487151455120029
 57     0.2063994386970655
 58    -0.0129483349413325
 59    -0.2168574984607612
 60    -0.0284201376081340
 61     0.1877652113983603
 62    -0.0039226358064754
 63    -0.1421365756939255
 64     0.0488293714231526
 65    -0.2063659825341601
 66    -0.0129353974289054
 67    -0.2168377619877891
 68     0.0284033023473564
 69    -0.0100798387018096
 70    -0.0512318129707103
 71     0.0615666788219066
 72     0.0185115084862810
 73     0.1774852337012024
 74    -0.1082607747109877
 75    -0.1703496220801353
 76     0.0098365907231336
 77     0.0102609592004751
 78    -0.0512446358287383
 79     0.0616161829678783
 80    -0.0183569070654095
 81    -0.1774075914224244
 82    -0.1082629524524595
 83    -0.1703847845848935
 84    -0.0098353416302294
 85     0.0363456148525353
 86    -0.0448062896606565
 87     0.0608725305009481
 88     0.0051200825514408
 89    -0.1315776231351782
 90    -0.0832586875412916
 91    -0.1007972155356578
 92     0.0488643906087284
 93    -0.0360199368956096
 94    -0.0448263892504259
 95     0.0609001414581811
 96    -0.0052766418522901
 97     0.1315337059010617
 98    -0.0832725062021666
 99    -0.1008323362542087
 100    -0.0488707800470803
 101    -0.0001695532715186
 102    -0.0330007463853598
 103     0.0426965177836408
 104    -0.0000913141607605
 105     0.0000545440214097
 106    -0.0392365936450805
 107    -0.0575522760189896
 108     0.0000050498614437
 109    -0.0000025604109273
 110     0.0099968781214146
 111    -0.0129185902238215
 112    -0.0000095479214116
 113    -0.0000286819568840
 114     0.0091157493231064
 115     0.0137631712034833
 116     0.0000144977737924
 117     0.0000022814384844
 118    -0.0050389743176954
 119     0.0063210394762296
 120    -0.0000132707433466
 121    -0.0000094509166701
 122    -0.0041360803300834
 123    -0.0062667259995068
 124    -0.0000222731449736
 125     0.2075693852852293
 126     0.0894856447278001
 127     0.0981759371416709
 128     0.0361879277308729
 129    -0.2073634110914225
 130    -0.0893992158362685
 131    -0.0981660916615339
 132    -0.0361904236714167
 133    -0.0799318743329834
 134    -0.0048439214683462
 135     0.0936061851965099
 136     0.0343032815275397
 137     0.0798029398122312
 138     0.0048008415183838
 139    -0.0936930500078197
 140    -0.0343419158593484
 141    -0.0783412903245963
 142    -0.0387615011466774
 143     0.1678625828004302
 144     0.0838118343773183
 145     0.0781131749207088
 146     0.0386407139460999
 147    -0.1678507545284315
 148    -0.0838052811652155
 149    -0.0002659978348383
 150    -0.0001627878009616
 151    -0.0001013572752016
 152    -0.0001370523958065
 153     0.0000075027824342
 154     0.0000204561030981
 155     0.0031020980153228
 156     0.0041957787286640
 157    -0.0000118654756716
 158     0.0000824771152497
 159     0.0003318796801289
 160    -0.0000150424814151
 161     0.0001962299589573
 162    -0.0000556190827278
 163    -0.0001545304490690
 164    -0.0010129863046952
 165    -0.0016252027977142
 166     0.0004802930084958
 167    -0.0003389221979086
 168    -0.0001292203333278
 169     0.0000356797256930
 170     0.0001326758737044
 171    -0.0005505329635143
 172     0.0003150056022166
 173    -0.0006715317265416
 174    -0.0016678871432731
 175     0.0029844271301474
 176    -0.0001735723066359
 177     0.0000419020157840
 178    -0.0003559068134196
 179    -0.0001720540245909
 180     0.0006040387219795
 181    -0.0001723219041715
 182    -0.0012550141101982
 183    -0.0012611183010440
 184    -0.0034396505469282
 Sym= 150A
 Ene= 0.573092
 Spin= Alpha
 Occup= 2.000000
  1     0.0004556133738989
  2     0.0000551324781320
  3     0.0007937237169813
  4     0.0001275776142034
  5     0.0010773248903668
  6     0.0028294435300289
  7     0.0019889895543069
  8     0.0012607869938834
  9     0.0046157842678282
 10    -0.0009315206590050
 11    -0.0001204839061624
 12    -0.0000000084411540
 13    -0.0000015975727809
 14     0.0011238189702260
 15     0.0026167568265034
 16     0.0000058901679665
 17    -0.0021679485165776
 18     0.0047908651641819
 19     0.0004586813152700
 20     0.0000518370810561
 21    -0.0007990367919744
 22    -0.0001278248619037
 23     0.0010843368522695
 24     0.0028312457439793
 25    -0.0019640461205524
 26     0.0012627011255209
 27     0.0046722419280286
 28     0.0000029252188416
 29    -0.0000069168242419
 30     0.0000045594382254
 31    -0.0000067942969199
 32    -0.0015882336382993
 33    -0.0120629826933735
 34    -0.0000332419363014
 35    -0.0000767003164363
 36     0.0066890867120726
 37    -0.1907785830339669
 38    -0.0000170271505531
 39    -0.0000105990466959
 40    -0.1066503227481677
 41     0.0885451479783253
 42     0.0000121554669310
 43    -0.0001315584775430
 44    -0.0752732817490628
 45     0.1404324024143347
 46    -0.0000381765410108
 47     0.0000498541974824
 48    -0.0709439049862732
 49    -0.0343709278596541
 50    -0.0000968925610352
 51    -0.0000880924602932
 52    -0.0438082312271562
 53     0.1874260013761033
 54     0.0012901223772332
 55    -0.0117824018758540
 56    -0.0994185488565846
 57    -0.1199710549175586
 58     0.0014686886306911
 59    -0.0122860972289517
 60    -0.0546316901879843
 61     0.1875913745058158
 62    -0.0013308565190926
 63     0.0116771347284427
 64    -0.0993789262137231
 65    -0.1201436907924811
 66    -0.0015011698441779
 67     0.0121065322077745
 68    -0.0546033113987988
 69    -0.1304609454898336
 70    -0.0153568074173750
 71     0.0224520384064394
 72    -0.0823662207767867
 73     0.0487606364128308
 74    -0.0006015558516838
 75    -0.0028132598558736
 76    -0.0343394448814043
 77    -0.1303845842954308
 78     0.0153164377573140
 79    -0.0223680308903210
 80    -0.0824062051912856
 81     0.0486094480825933
 82     0.0005139519854943
 83     0.0026605815073372
 84    -0.0343468536987190
 85    -0.3341420946022109
 86    -0.0109338888373313
 87     0.0152466056725307
 88     0.2063263463686911
 89    -0.0046386889333621
 90    -0.0008299924541652
 91    -0.0004008698629555
 92    -0.0098059273700495
 93    -0.3342105276643182
 94     0.0109082461013022
 95    -0.0153081756810746
 96     0.2062829690954387
 97    -0.0045283545814117
 98     0.0007594672935889
 99     0.0003116465948837
 100    -0.0098468187572635
 101     0.3316944021884548
 102    -0.0000188274132435
 103    -0.0000481568851840
 104     0.2173777951473391
 105     0.0061661987433178
 106    -0.0000158355381614
 107    -0.0000266354907408
 108    -0.0090506301900729
 109     0.0276726967583298
 110    -0.0000042445857232
 111    -0.0000104172590945
 112     0.0329499698514751
 113     0.0047716453170789
 114     0.0000039397005932
 115     0.0000048807314801
 116    -0.0031987282434464
 117     0.0143025642822416
 118     0.0000074504655147
 119     0.0000177778446395
 120     0.0075831597351966
 121     0.0008635698230697
 122    -0.0000013201946417
 123    -0.0000002784740241
 124     0.0021934303409960
 125    -0.1381743809905405
 126    -0.0606482117197236
 127     0.1055882062467834
 128     0.0427688780645252
 129    -0.1383365130229652
 130    -0.0607241560104026
 131     0.1055102735013420
 132     0.0427409855661772
 133     0.0829855895820181
 134     0.0350846559098857
 135    -0.0431859478329736
 136    -0.0078311781356554
 137     0.0830206800065192
 138     0.0350755614402587
 139    -0.0432629863926586
 140    -0.0078598387344145
 141     0.2584968170591937
 142     0.1312195617415462
 143     0.0100057170334176
 144     0.0028374621317213
 145     0.2585456567264315
 146     0.1312512280733201
 147     0.0098627349497987
 148     0.0027665852058038
 149    -0.0000000257128827
 150    -0.0000011236694478
 151    -0.0000002890569317
 152     0.0000001249867360
 153    -0.0009179287526307
 154    -0.0025518103793580
 155    -0.0000005560749319
 156    -0.0000072730690888
 157     0.0001252089728995
 158    -0.0000571219716450
 159     0.0000043805848749
 160     0.0000996983767587
 161    -0.0000129855632246
 162     0.0001716588100319
 163     0.0002606440341067
 164    -0.0003020232591743
 165     0.0001933497571662
 166    -0.0007131682361667
 167     0.0001161474933719
 168    -0.0000109017750956
 169     0.0000000232924020
 170    -0.0000000510134459
 171     0.0001776401117135
 172     0.0002249455325687
 173     0.0000001206575549
 174    -0.0003323668305211
 175    -0.0007288690008498
 176    -0.0000570537022203
 177     0.0000044896697586
 178    -0.0000995340232522
 179     0.0000129801918433
 180     0.0001714666847545
 181     0.0002608126926258
 182     0.0003027960450591
 183     0.0001933390680228
 184    -0.0007115942982291
 Sym= 151A
 Ene= 0.582761
 Spin= Alpha
 Occup= 2.000000
  1    -0.0000511748457779
  2     0.0000079401882880
  3    -0.0000898543661672
  4     0.0000002501242046
  5    -0.0003196987214546
  6     0.0002021074336532
  7    -0.0005157561310959
  8    -0.0003419852255119
  9    -0.0012381794594600
 10     0.0001039767889270
 11    -0.0000095580628338
 12     0.0000000119950466
 13    -0.0000007747547788
 14    -0.0003307336093719
 15     0.0002825707241693
 16     0.0000029358635443
 17     0.0005632231002729
 18    -0.0012522127791425
 19    -0.0000497867018914
 20     0.0000063925567579
 21     0.0000874815203958
 22    -0.0000003371351848
 23    -0.0003163948213409
 24     0.0002024258233187
 25     0.0005275855267130
 26    -0.0003412017245527
 27    -0.0012129828278664
 28     0.0000025555535353
 29     0.0000020294059156
 30     0.0000016400121797
 31    -0.0000021268833752
 32     0.0042297994729620
 33     0.0070838600398663
 34    -0.0000153251048572
 35     0.0000120578451462
 36     0.0046196780897034
 37     0.0797900564166144
 38     0.0000087354209941
 39     0.0000128160483317
 40     0.0601978032554360
 41    -0.2636817731091392
 42     0.0000413844889323
 43    -0.0000617565776647
 44     0.1918654522778288
 45     0.1869422048130613
 46    -0.0000041169528404
 47     0.0000021890390346
 48    -0.0830671797631142
 49     0.1925395449960257
 50    -0.0000380622694539
 51    -0.0000200219690403
 52     0.1545117226230518
 53    -0.0917652794435582
 54    -0.0013768988467739
 55    -0.0194087848603306
 56     0.0502643643112136
 57     0.2849345822451801
 58    -0.0031949895431892
 59    -0.0108365375579339
 60     0.1673059546994947
 61    -0.0916712860810644
 62     0.0013985385774670
 63     0.0193773210731536
 64     0.0502920623629639
 65     0.2848139937484962
 66     0.0032511090805752
 67     0.0107927922552661
 68     0.1673165753350688
 69    -0.1549770402005264
 70    -0.0099638795303520
 71     0.0162686019456213
 72    -0.0922060804224577
 73    -0.2046812453726827
 74     0.0095752218278005
 75     0.0179137143024670
 76     0.1322493893136480
 77    -0.1549018477822360
 78     0.0100064920684671
 79    -0.0162879370128217
 80    -0.0922203332562002
 81    -0.2047377366322499
 82    -0.0096332910933498
 83    -0.0179511223753126
 84     0.1322379510109819
 85    -0.1189864002406347
 86    -0.0156858542286257
 87     0.0205245039500402
 88     0.0831281928147396
 89     0.0649266006798246
 90     0.0122613870613965
 91     0.0142006215446340
 92     0.0476663990854927
 93    -0.1190251601424429
 94     0.0157317025289778
 95    -0.0206234914522777
 96     0.0830822155418696
 97     0.0649839052159968
 98    -0.0122978494513115
 99    -0.0142258791655613
 100     0.0476510087774327
 101     0.1527277912182609
 102     0.0000213054464909
 103    -0.0000534008507106
 104     0.0700313015830339
 105    -0.0318471124030034
 106    -0.0000151395562915
 107     0.0000020701770947
 108     0.0633418923248890
 109    -0.0135220152395084
 110    -0.0000094082455216
 111     0.0000157875905715
 112     0.0001047701306147
 113    -0.0395267119313282
 114     0.0000012055968942
 115     0.0000097074541696
 116     0.0250012281852345
 117     0.0037230349195195
 118     0.0000064465056952
 119    -0.0000110781990499
 120     0.0170706033346030
 121    -0.0058176222879587
 122    -0.0000011732548153
 123    -0.0000165196669371
 124    -0.0185447447313726
 125     0.0954879992549204
 126     0.0466634474659254
 127    -0.2246535257298093
 128    -0.0925358678068520
 129     0.0954240531573317
 130     0.0466202526505599
 131    -0.2246498822817090
 132    -0.0925300925679228
 133     0.1062300466294589
 134     0.0662578339346682
 135     0.1593979999237267
 136     0.0545817573559914
 137     0.1061400073339619
 138     0.0662046979633981
 139     0.1593438407422223
 140     0.0545689862003735
 141     0.0811204822695212
 142     0.0429675341396886
 143    -0.0790018179150344
 144    -0.0326850775276452
 145     0.0810557114116233
 146     0.0429428628448245
 147    -0.0790685248948058
 148    -0.0327211818323548
 149    -0.0000031051646877
 150     0.0000092812447405
 151     0.0000003010725437
 152    -0.0000018926719145
 153     0.0073120801402362
 154     0.0196635477964044
 155     0.0000030672886145
 156     0.0000559354470348
 157    -0.0012519165257821
 158     0.0004357626494633
 159    -0.0000334796602459
 160    -0.0007602560705110
 161     0.0001011222866008
 162    -0.0013068318273998
 163    -0.0019522454888343
 164     0.0022985313324997
 165    -0.0014739786755416
 166     0.0054071347255766
 167    -0.0008857176441599
 168     0.0000837492695977
 169    -0.0000000391101227
 170     0.0000002846339240
 171    -0.0013536710695809
 172    -0.0016708606196787
 173    -0.0000010686738002
 174     0.0025177094880585
 175     0.0055279884907313
 176     0.0004354497103601
 177    -0.0000341039971095
 178     0.0007596375189604
 179    -0.0001010995329548
 180    -0.0013057015914705
 181    -0.0019539567341790
 182    -0.0023030892755842
 183    -0.0014735280205455
 184     0.0054013800744648
 Sym= 152A
 Ene= 0.594690
 Spin= Alpha
 Occup= 2.000000
  1     0.0006699862445949
  2    -0.0022585188238330
  3     0.0002859886508451
  4     0.0012445210235630
  5     0.0007229479015452
  6     0.0009015023183108
  7    -0.0075400344884636
  8     0.0100671368294101
  9     0.0051247206633390
 10    -0.0019835705405645
 11     0.0008537169011506
 12    -0.0002790519139731
 13     0.0010777685775267
 14     0.0033726162808144
 15    -0.0026172240335765
 16    -0.0052663751841152
 17     0.0108528268594590
 18     0.0175509991105753
 19    -0.0011574263696988
 20    -0.0001386522299519
 21     0.0023129833816655
 22    -0.0011468785545236
 23    -0.0040936052001930
 24     0.0017898969836403
 25    -0.0094116169268326
 26     0.0081386813434501
 27    -0.0225666883113304
 28    -0.0018060155736411
 29     0.0008983669651584
 30     0.0008419715843245
 31    -0.0009264377667556
 32    -0.0000226553811010
 33    -0.0000659062695915
 34     0.0222945480905196
 35    -0.0251446518061234
 36    -0.0000551469848774
 37    -0.0009154696603671
 38    -0.0094046731872158
 39    -0.1790892016186618
 40    -0.0004866931343437
 41    -0.0000655735037189
 42    -0.0150626868572495
 43     0.0220294032089194
 44     0.0000557230449038
 45    -0.0005268580094964
 46     0.0418025418431958
 47    -0.0064247157646382
 48     0.0002653899687355
 49     0.0007517412137622
 50     0.0590540469238956
 51     0.0667679121880446
 52     0.0004498169035033
 53     0.1294427910075823
 54    -0.0015162731467326
 55    -0.1123499301175841
 56     0.0461698313969524
 57    -0.1582088592851311
 58     0.0073260871515545
 59    -0.0663547303546160
 60     0.0351962295135662
 61    -0.1276465697649887
 62    -0.0015556830186874
 63    -0.1123275587051985
 64    -0.0471369355686745
 65     0.1582895202183234
 66     0.0073153807912223
 67    -0.0662156379284176
 68    -0.0349950213825996
 69     0.3037010701080455
 70    -0.1113553590591279
 71     0.1237974206326357
 72    -0.0319503383076264
 73    -0.0355517936552785
 74     0.0429489483458980
 75     0.0570387020400925
 76    -0.0118856461401277
 77    -0.3028736004542859
 78    -0.1113725035173845
 79     0.1238430233187967
 80     0.0326027765706771
 81     0.0341577576350449
 82     0.0428933634217778
 83     0.0569468191631784
 84     0.0126834638613884
 85    -0.1995219051724457
 86    -0.1192527112981859
 87     0.1626813901761323
 88    -0.1094949265189572
 89     0.0424598537538817
 90     0.0351301752157572
 91     0.0462418880990624
 92    -0.0113031232108603
 93     0.1998309839573358
 94    -0.1193412236144912
 95     0.1627710481421680
 96     0.1094219882727999
 97    -0.0412571288328833
 98     0.0350249475398593
 99     0.0461219002678147
 100     0.0119627152079180
 101    -0.0002724866262723
 102    -0.1819989321078904
 103     0.2374332384069729
 104     0.0000179128352959
 105    -0.0004108601456989
 106     0.0214655617588565
 107     0.0285422410839937
 108     0.0004311857814734
 109     0.0001133635244030
 110     0.0599890482714240
 111    -0.0782119970616208
 112     0.0000504150481898
 113    -0.0001742548792468
 114    -0.0058751766171874
 115    -0.0078182094197287
 116     0.0001217537260013
 117     0.0000306967962787
 118    -0.0304154209023600
 119     0.0388662959635326
 120    -0.0000847222306347
 121    -0.0000279053198407
 122     0.0027265061521565
 123     0.0035630538922688
 124    -0.0000602882203952
 125     0.0599344357436779
 126    -0.0187558835585271
 127     0.1212188951789088
 128     0.0577409830569403
 129    -0.0613081015940146
 130     0.0180355631257856
 131    -0.1212274560239017
 132    -0.0576855656460028
 133    -0.2778431736839342
 134    -0.1259137857371224
 135    -0.0541195456272981
 136    -0.0031302671708515
 137     0.2771773349338922
 138     0.1254741505290182
 139     0.0551634553320789
 140     0.0036415227910759
 141    -0.1181723829712342
 142    -0.0410574475714711
 143    -0.0659711126354004
 144    -0.0330916415188053
 145     0.1180696102789425
 146     0.0409802202886113
 147     0.0648566033688743
 148     0.0325730802595321
 149     0.0001833113975268
 150     0.0000779331864613
 151     0.0000911761586169
 152     0.0000787630234073
 153     0.0000272876853564
 154     0.0000787557539780
 155    -0.0019028933426582
 156    -0.0021910158359304
 157     0.0000068462570440
 158    -0.0000549936532332
 159    -0.0001932452948236
 160     0.0000182635745364
 161    -0.0001067133679451
 162     0.0000524727446524
 163     0.0000690161442916
 164     0.0006460639113418
 165     0.0008599739455443
 166    -0.0003938269402608
 167     0.0001659247905610
 168     0.0000743199985317
 169    -0.0000241973756403
 170    -0.0000907046711853
 171     0.0002848656843060
 172    -0.0002300727643636
 173     0.0004425655041330
 174     0.0009447551268573
 175    -0.0014849584924592
 176     0.0000994989431115
 177    -0.0000134369914455
 178     0.0002002346113388
 179     0.0000985297952330
 180    -0.0003549753470909
 181     0.0001386990547784
 182     0.0007857710797388
 183     0.0006936481852336
 184     0.0019431360142879
 Sym= 153A
 Ene= 0.595469
 Spin= Alpha
 Occup= 2.000000
  1     0.0001633702038993
  2     0.0000132511118445
  3     0.0002882938576059
  4     0.0000283147772107
  5     0.0005916643590129
  6     0.0004599956487575
  7     0.0010395908574915
  8     0.0006247963311823
  9     0.0023776195823215
 10    -0.0003294434490805
 11    -0.0000235522215404
 12     0.0000008977373886
 13    -0.0000030467471467
 14     0.0006041750677166
 15     0.0003299335104119
 16     0.0000153841071950
 17    -0.0011396841562578
 18     0.0023782640574841
 19     0.0001685281838036
 20     0.0000072546339044
 21    -0.0002954099653086
 22    -0.0000285928358537
 23     0.0006054159378917
 24     0.0004571035179106
 25    -0.0009913509854879
 26     0.0006306745461268
 27     0.0024534869197451
 28     0.0000020322205274
 29    -0.0000073831984903
 30    -0.0000035464109448
 31     0.0000039373761971
 32    -0.0049828700408565
 33    -0.0104260776440817
 34    -0.0000637640603380
 35     0.0000624816997775
 36    -0.0033355535227141
 37    -0.2742472627301570
 38     0.0000005012991145
 39     0.0005505330010391
 40    -0.1547213567827296
 41    -0.0027037966435264
 42     0.0000528088594357
 43    -0.0000929485002521
 44     0.0007224025508758
 45    -0.1686671247482456
 46    -0.0001331399214786
 47     0.0000279634922180
 48     0.0763853448554713
 49     0.2245304632307999
 50    -0.0001998306307761
 51    -0.0002116695292467
 52     0.1304709347247405
 53     0.2742330916905064
 54     0.0042919732142227
 55     0.0010544796344884
 56    -0.1539756295966143
 57    -0.0014342924069587
 58    -0.0004431704431488
 59    -0.0178578293530670
 60     0.0167873022547993
 61     0.2750638017019140
 62    -0.0043428880584106
 63    -0.0003793480413095
 64    -0.1536722293337358
 65    -0.0024552085257998
 66     0.0004011244470967
 67     0.0182434650618119
 68     0.0170084936790593
 69     0.1387002273495922
 70     0.0006458668585168
 71    -0.0054461809420704
 72     0.0895850389708759
 73    -0.2031371261761981
 74     0.0075261932128510
 75     0.0150258575710123
 76     0.1179343906821887
 77     0.1406156357316564
 78     0.0000284666195452
 79     0.0046637877168941
 80     0.0893729243652904
 81    -0.2033693640698064
 82    -0.0078314380312074
 83    -0.0153943125591297
 84     0.1178499520698858
 85     0.0572365851008819
 86     0.0115698684842900
 87    -0.0145755433321018
 88    -0.0378315339211718
 89     0.1838046432960969
 90     0.0159974652366904
 91     0.0189228801341318
 92     0.1022929178924471
 93     0.0559547907386318
 94    -0.0108406017160604
 95     0.0135982886938818
 96    -0.0385096477103879
 97     0.1840880790061109
 98    -0.0162442237510564
 99    -0.0191996478086103
 100     0.1022185082935146
 101    -0.0843518599751341
 102     0.0005695482988698
 103    -0.0007346167056962
 104    -0.0203781628923643
 105    -0.1244951712499163
 106    -0.0000882996440152
 107    -0.0000717200251072
 108     0.1327791682645723
 109     0.0230889215584227
 110    -0.0001875902217257
 111     0.0002376462298670
 112     0.0083520324353940
 113    -0.0542007402446642
 114     0.0000168792140145
 115     0.0000360610305943
 116     0.0376661785526185
 117    -0.0012167689007179
 118     0.0000944293206879
 119    -0.0001138717836703
 120    -0.0173248426995281
 121    -0.0093378925139688
 122    -0.0000081650194128
 123    -0.0000275021389045
 124    -0.0193150393140667
 125    -0.2165985053832445
 126    -0.1140566417866893
 127     0.0095078167742439
 128     0.0131591836294663
 129    -0.2162468283655351
 130    -0.1141823423351889
 131     0.0102530036258448
 132     0.0135149596268504
 133    -0.1096856762578586
 134    -0.0727634759327992
 135     0.1516687768494934
 136     0.0748393107681751
 137    -0.1113970542881274
 138    -0.0735375294684318
 139     0.1512888132359848
 140     0.0748035780585533
 141    -0.0336570587949199
 142    -0.0191355742540564
 143    -0.1702532746308214
 144    -0.0793245832705197
 145    -0.0343538318386501
 146    -0.0193720556082912
 147    -0.1706936636446504
 148    -0.0795478332663264
 149    -0.0000076043700762
 150     0.0000138135654347
 151    -0.0000012340311121
 152    -0.0000046572098963
 153     0.0085286683840967
 154     0.0249301151961121
 155     0.0000004354223486
 156     0.0000627063979549
 157     0.0009433989532642
 158     0.0006224877491884
 159    -0.0000564526109834
 160    -0.0010854868368860
 161     0.0001560400196930
 162    -0.0017415747179517
 163    -0.0030329407372806
 164     0.0030905622468840
 165    -0.0019766428717874
 166     0.0072335794559669
 167    -0.0012623623243026
 168     0.0001347836981201
 169     0.0000000445914372
 170     0.0000001720377526
 171    -0.0018030675530650
 172    -0.0026495368427831
 173    -0.0000011197431589
 174     0.0033753046447828
 175     0.0073837889168062
 176     0.0006224691272630
 177    -0.0000568732411219
 178     0.0010855431998151
 179    -0.0001560347514893
 180    -0.0017408371087554
 181    -0.0030357998758451
 182    -0.0030937845178403
 183    -0.0019758575062473
 184     0.0072353237843951
 Sym= 154A
 Ene= 0.606364
 Spin= Alpha
 Occup= 2.000000
  1    -0.0001139083441355
  2    -0.0000068355325420
  3    -0.0001989497986350
  4    -0.0000252439365624
  5    -0.0003716619414430
  6    -0.0004044768059231
  7    -0.0006429058975631
  8    -0.0004135286511543
  9    -0.0015080087046182
 10     0.0002305767738325
 11     0.0000187564370568
 12    -0.0000000094031309
 13    -0.0000001203180800
 14    -0.0003845130066074
 15    -0.0003150819560311
 16     0.0000003800315866
 17     0.0006978028482399
 18    -0.0015311446056999
 19    -0.0001137191679507
 20    -0.0000070578823809
 21     0.0001986042870380
 22     0.0000252410491735
 23    -0.0003712120605103
 24    -0.0004044796199988
 25     0.0006445856240981
 26    -0.0004135416921095
 27    -0.0015042976996353
 28     0.0000027038226574
 29     0.0000030685701709
 30     0.0000003034764458
 31    -0.0000004425101746
 32     0.0027602076009880
 33     0.0061727586361055
 34    -0.0000020283279983
 35     0.0000075470523704
 36     0.0013856948645815
 37     0.2115924608578487
 38     0.0000242019261073
 39    -0.0000086788692510
 40     0.1013858406696455
 41     0.2495113003880115
 42    -0.0000242134408876
 43    -0.0000139685412136
 44    -0.1064368444939076
 45     0.0672690901821250
 46    -0.0000108087610975
 47     0.0000112050893219
 48    -0.0361080354554888
 49     0.0022077556333139
 50     0.0000197116596805
 51     0.0000252466984120
 52     0.0269546507968387
 53    -0.1765233508112707
 54    -0.0029634340209250
 55     0.0208812077495462
 56     0.1267153356652584
 57    -0.2184261775595747
 58     0.0029158087567943
 59     0.0215619373878858
 60    -0.1258708019270082
 61    -0.1764972049295768
 62     0.0030083862316600
 63    -0.0209198640670514
 64     0.1267107612332732
 65    -0.2184112824940435
 66    -0.0029572208685214
 67    -0.0216174478404959
 68    -0.1258440908475448
 69    -0.0602629096848194
 70     0.0064764157351348
 71    -0.0051294647919571
 72    -0.0490030602805385
 73    -0.0126456330240590
 74    -0.0151775338044479
 75    -0.0170637685839099
 76     0.0132825297302736
 77    -0.0602417778574308
 78    -0.0064772326802762
 79     0.0051529445147784
 80    -0.0490123377262816
 81    -0.0126575781134713
 82     0.0152170291362179
 83     0.0171199712293980
 84     0.0132893853457629
 85    -0.0215446218093395
 86    -0.0006089595542513
 87     0.0001590290845183
 88     0.0044577147761995
 89     0.2930056382868645
 90    -0.0050986614096268
 91    -0.0086789051380596
 92     0.1872290140143738
 93    -0.0215704574061975
 94     0.0006027382283963
 95    -0.0001537617431483
 96     0.0044467657790144
 97     0.2929876465872134
 98     0.0051264723011249
 99     0.0088030877381275
 100     0.1872186020745072
 101     0.0229289465939905
 102     0.0000016397084153
 103    -0.0000011499741686
 104    -0.0047727655276595
 105    -0.2804103370177131
 106    -0.0000045042170959
 107     0.0000625236440033
 108     0.2051710578787345
 109    -0.0149483754209012
 110    -0.0000001668098830
 111     0.0000045859837861
 112    -0.0067816345582350
 113    -0.0406832600594640
 114    -0.0000121023795709
 115     0.0000022959996749
 116     0.0375931278136723
 117     0.0001126034983628
 118     0.0000003008742898
 119    -0.0000041710838998
 120     0.0091288903063248
 121    -0.0124720344309044
 122     0.0000040996165932
 123    -0.0000053507236713
 124    -0.0019515684019084
 125     0.1321180206627095
 126     0.0730633154751955
 127     0.1529797813133149
 128     0.0846512979651093
 129     0.1320663037857666
 130     0.0730395392647633
 131     0.1529201451757446
 132     0.0846363155368030
 133     0.0618087965068989
 134     0.0378401252957079
 135     0.0366421863735214
 136     0.0224597486588226
 137     0.0618100288406056
 138     0.0378299835373393
 139     0.0367150180659161
 140     0.0224823409013542
 141     0.0133295515005746
 142     0.0078219760597660
 143    -0.2356324400725662
 144    -0.1156884705146674
 145     0.0133440073352748
 146     0.0078297201752755
 147    -0.2355505096814360
 148    -0.1156538524104062
 149    -0.0000059504927808
 150     0.0000121272273546
 151    -0.0000023290250360
 152    -0.0000063412619393
 153     0.0040662219325529
 154     0.0170633040482539
 155    -0.0000169414585119
 156     0.0000355700610553
 157     0.0056753880312216
 158     0.0005573145158212
 159    -0.0000641546161625
 160    -0.0009714432680241
 161     0.0001542541548675
 162    -0.0013697578183878
 163    -0.0031680038241326
 164     0.0024920775872044
 165    -0.0015790849358246
 166     0.0057753287481985
 167    -0.0011284363551058
 168     0.0001428110728900
 169     0.0000000042584355
 170    -0.0000007910201916
 171    -0.0014171727955882
 172    -0.0028683634953274
 173     0.0000025056381697
 174     0.0027177036732323
 175     0.0058935105839711
 176     0.0005588190279266
 177    -0.0000627502666366
 178     0.0009740489785770
 179    -0.0001542887109043
 180    -0.0013728465496048
 181    -0.0031702829318953
 182    -0.0024812798082163
 183    -0.0015788589345276
 184     0.0058044779771377
 Sym= 155A
 Ene= 0.617219
 Spin= Alpha
 Occup= 2.000000
  1     0.0002607365985891
  2    -0.0009066600927458
  3     0.0000832728974641
  4     0.0005073835387165
  5     0.0002491687090429
  6     0.0003709973249578
  7    -0.0028689251031621
  8     0.0039705295918015
  9     0.0017930733703128
 10    -0.0007440897293238
 11     0.0003656368726057
 12    -0.0001161727291384
 13     0.0004445579004971
 14     0.0013366095334067
 15    -0.0012988668009572
 16    -0.0021039328024748
 17     0.0045515025197310
 18     0.0066542225746674
 19    -0.0004195737620596
 20    -0.0000847736184681
 21     0.0008597637100528
 22    -0.0004964224041856
 23    -0.0015893545097155
 24     0.0009593885703559
 25    -0.0037691190159570
 26     0.0034443436693870
 27    -0.0084223632980454
 28    -0.0009639447877769
 29     0.0003198588987662
 30     0.0005290469372102
 31    -0.0003293742176200
 32     0.0000020819822617
 33    -0.0000015647746939
 34     0.0084879183679247
 35    -0.0098496853334962
 36    -0.0000124392582618
 37     0.0000820315705444
 38    -0.0191081301745416
 39     0.0897180658484936
 40     0.0000426313278608
 41     0.0001458070504901
 42     0.0213734154930658
 43     0.1246073364446437
 44    -0.0000887193653675
 45     0.0000155856501096
 46     0.0614847204010466
 47    -0.0984034680222161
 48    -0.0000234360774169
 49     0.0001683675593524
 50    -0.0793398473851541
 51    -0.1327283281503211
 52     0.0000964667339922
 53     0.0812868265157790
 54     0.0097799013155233
 55     0.1574102272945792
 56    -0.0207820310730811
 57     0.0180238429169699
 58    -0.0111548941853529
 59     0.1512462443899917
 60     0.0492126129020561
 61    -0.0814074800106785
 62     0.0097872119609140
 63     0.1573712114324280
 64     0.0208458708888172
 65    -0.0182813249641337
 66    -0.0111800061394479
 67     0.1512256498737899
 68    -0.0493761242067363
 69     0.2001116427169606
 70    -0.0005702833433479
 71     0.0036241624956016
 72    -0.0812611553212640
 73    -0.0670682990409167
 74    -0.1330823280453587
 75    -0.1593377728304758
 76     0.0268884854308027
 77    -0.2001722061213486
 78    -0.0005988920525115
 79     0.0036106829125969
 80     0.0812211672921489
 81     0.0668127402273390
 82    -0.1330902548153709
 83    -0.1593818340812526
 84    -0.0266574394139499
 85    -0.2172803783506604
 86     0.0012214793038192
 87    -0.0025267750896202
 88    -0.0721460858966576
 89    -0.0108405381903977
 90    -0.1282168404141310
 91    -0.1728516134838579
 92    -0.0267319026143954
 93     0.2172643083653898
 94     0.0012087293278286
 95    -0.0025255862144453
 96     0.0721514156423469
 97     0.0106876319047322
 98    -0.1282513207311207
 99    -0.1728943859478413
 100     0.0267013203529667
 101    -0.0000112117168842
 102    -0.0763926857140062
 103     0.1014105773988224
 104     0.0000100041936250
 105     0.0001246168930082
 106    -0.1203663633138913
 107    -0.1571273042210941
 108     0.0000033434654138
 109    -0.0000010483253919
 110     0.0259099975273765
 111    -0.0342671262582028
 112    -0.0000005245030299
 113    -0.0000550325494420
 114     0.0363064417333230
 115     0.0474074992654168
 116     0.0000234162807156
 117     0.0000080176227392
 118    -0.0130791405747789
 119     0.0170249356538732
 120    -0.0000006567666966
 121    -0.0000083594627013
 122    -0.0172137265197420
 123    -0.0221299041656152
 124    -0.0000391168659476
 125    -0.1742923781872831
 126    -0.0868276402820507
 127    -0.1657630507016199
 128    -0.0421532498330948
 129     0.1743570133363097
 130     0.0868809887649284
 131     0.1659628796637775
 132     0.0422618288107798
 133    -0.0596784592724551
 134    -0.0533326965867175
 135     0.2280590594429676
 136     0.0780952273056767
 137     0.0597614550584460
 138     0.0533672709253097
 139    -0.2278635748878648
 140    -0.0779820043488165
 141     0.0721579889989598
 142     0.0421187198484681
 143     0.1977447788014206
 144     0.0876128138717755
 145    -0.0721227692447503
 146    -0.0421039114992438
 147    -0.1976831277626940
 148    -0.0875730469136442
 149    -0.0013452680910249
 150    -0.0003927834029910
 151    -0.0007805535140252
 152    -0.0004104479136468
 153     0.0000088939125297
 154     0.0000275556297607
 155     0.0106093844357082
 156     0.0121393490281648
 157    -0.0000200018526034
 158     0.0003290619679420
 159     0.0011108168074197
 160    -0.0001079828020411
 161     0.0006171760998660
 162    -0.0003226938457287
 163    -0.0004518565520690
 164    -0.0035501360295572
 165    -0.0048397994701545
 166     0.0022854192669292
 167    -0.0009028909070142
 168    -0.0004462020117691
 169     0.0001470083046192
 170     0.0005475141414344
 171    -0.0016301442043542
 172     0.0015471223051996
 173    -0.0025909006077493
 174    -0.0055206658538851
 175     0.0081025816988936
 176    -0.0005125792424357
 177     0.0000930438283223
 178    -0.0010520494122996
 179    -0.0006046447830616
 180     0.0019525267882917
 181    -0.0011390879393541
 182    -0.0046423620553948
 183    -0.0041741351301213
 184    -0.0103399417208261
 Sym= 156A
 Ene= 0.619971
 Spin= Alpha
 Occup= 2.000000
  1    -0.0000605145151672
  2    -0.0000040349192618
  3    -0.0001054420416973
  4    -0.0000148677131736
  5    -0.0001834467357915
  6    -0.0002445007095812
  7    -0.0003184975146038
  8    -0.0002075182645627
  9    -0.0007481571653986
 10     0.0001223735864485
 11     0.0000113247854981
 12     0.0000000651094007
 13    -0.0000002715045820
 14    -0.0001903412717099
 15    -0.0001982310962195
 16     0.0000012391535957
 17     0.0003434762169268
 18    -0.0007611010051437
 19    -0.0000601036308262
 20    -0.0000045328647465
 21     0.0001048623270732
 22     0.0000148631709525
 23    -0.0001823485757189
 24    -0.0002448378150317
 25     0.0003224954808967
 26    -0.0002072479598016
 27    -0.0007418440794225
 28     0.0000021605294099
 29     0.0000014448960370
 30    -0.0000002489778821
 31    -0.0000000204106687
 32     0.0012301766731345
 33     0.0029142021557720
 34    -0.0000050701125138
 35     0.0000077379393822
 36     0.0004141953147391
 37     0.0776016896969767
 38     0.0000174544382800
 39    -0.0000660797775549
 40     0.0220280081949053
 41     0.1996975209471772
 42    -0.0000270467320839
 43    -0.0000373124268149
 44    -0.0942086832509113
 45     0.0050474830732346
 46    -0.0000395458196736
 47     0.0000620707905615
 48    -0.0100427831593150
 49     0.3170499993354273
 50     0.0000571316239731
 51     0.0000876810371444
 52     0.1672379488383337
 53    -0.0684939519232095
 54    -0.0017356176892721
 55     0.0030462250280286
 56     0.0492571274905763
 57    -0.1883397849092325
 58     0.0040339656580469
 59    -0.0101178601722894
 60    -0.1166578300406492
 61    -0.0684655894801901
 62     0.0017432913362770
 63    -0.0032191234130250
 64     0.0492091727121180
 65    -0.1882385801633952
 66    -0.0040658847105182
 67     0.0099515689528350
 68    -0.1166111281615536
 69    -0.0104466556819726
 70     0.0066397539935819
 71    -0.0074919943364136
 72    -0.0197848972617531
 73    -0.2839077913523694
 74     0.0086228663932548
 75     0.0194730463442974
 76     0.1848103052559930
 77    -0.0102074123530466
 78    -0.0066414033940981
 79     0.0075008435368674
 80    -0.0198855413061158
 81    -0.2838714947804590
 82    -0.0085424503193579
 83    -0.0193051751620757
 84     0.1848406358953363
 85    -0.0082047710027200
 86     0.0043553574206649
 87    -0.0059718696504655
 88    -0.0069758745214850
 89    -0.2176114212251730
 90     0.0206765664830634
 91     0.0263482735597644
 92    -0.1335882897980920
 93    -0.0084738237428875
 94    -0.0043658590635399
 95     0.0059892410510631
 96    -0.0070589771137443
 97    -0.2176745753234473
 98    -0.0205641589277477
 99    -0.0262637450929552
 100    -0.1335714166449614
 101    -0.0022550393416793
 102     0.0000445608924444
 103    -0.0000556543388045
 104    -0.0106427845900297
 105     0.2526200608090791
 106     0.0000476029876521
 107     0.0000283884898812
 108    -0.1128033381820142
 109    -0.0078656925582916
 110    -0.0000145948715513
 111     0.0000215167412100
 112    -0.0041589873931722
 113    -0.0247837536440308
 114    -0.0000044797607044
 115    -0.0000160875704912
 116    -0.0002794880573593
 117    -0.0002008962975285
 118     0.0000073798086320
 119    -0.0000112066112036
 120     0.0038737369375409
 121     0.0077565519628090
 122     0.0000048172829703
 123     0.0000029552686508
 124    -0.0290553419340631
 125     0.0553038275728467
 126     0.0316640595733397
 127     0.1615319507230313
 128     0.0943328482701598
 129     0.0551297367736644
 130     0.0315798454146133
 131     0.1613218869756200
 132     0.0942618675325303
 133     0.0231293116854959
 134     0.0132548066457182
 135     0.2161922739667843
 136     0.1227823334826149
 137     0.0230653752538510
 138     0.0131972643942713
 139     0.2163292047803797
 140     0.1228113315672847
 141     0.0069705943100362
 142     0.0035782443474374
 143     0.1492591016628450
 144     0.0792059728212590
 145     0.0070731886348774
 146     0.0036352037527878
 147     0.1494174386215574
 148     0.0792802183527440
 149    -0.0000057208620144
 150     0.0000039619538820
 151     0.0000026953960202
 152     0.0000045930993868
 153     0.0067261473712884
 154     0.0105731803834985
 155     0.0000115562916496
 156    -0.0000081224728268
 157    -0.0075644139576202
 158     0.0000634466821162
 159     0.0000114547396597
 160    -0.0001120526954542
 161    -0.0000019540748439
 162    -0.0004447625512650
 163     0.0004261472272650
 164     0.0006941163992691
 165    -0.0004545623157652
 166     0.0016741612686632
 167    -0.0001266852863434
 168    -0.0000154309081589
 169    -0.0000001377438917
 170     0.0000007531053686
 171    -0.0004576116132111
 172     0.0005474135248919
 173    -0.0000018708206337
 174     0.0007487956082683
 175     0.0016686048005880
 176     0.0000623237804972
 177     0.0000101193467722
 178     0.0001098394427474
 179     0.0000019427674583
 180    -0.0004422264526674
 181     0.0004262476789025
 182    -0.0007039401559324
 183    -0.0004552583856246
 184     0.0016499670186760
 Sym= 157A
 Ene= 0.633185
 Spin= Alpha
 Occup= 2.000000
  1     0.0002098287772781
  2    -0.0007453264247539
  3     0.0000560476445393
  4     0.0004206344863996
  5     0.0001876861753381
  6     0.0003112621893050
  7    -0.0022773816616902
  8     0.0032140259832743
  9     0.0013631508530524
 10    -0.0005771790054160
 11     0.0003118682300192
 12    -0.0000966814102874
 13     0.0003704683515053
 14     0.0010800719419883
 15    -0.0012167444820447
 16    -0.0017131472387244
 17     0.0038321081776360
 18     0.0051976843559752
 19    -0.0003200932843824
 20    -0.0000815767909322
 21     0.0006661758101730
 22    -0.0004248214181291
 23    -0.0012715911081291
 24     0.0009337087859961
 25    -0.0031063046253052
 26     0.0029005299421230
 27    -0.0065447512170626
 28    -0.0008979709252981
 29     0.0002367751191460
 30     0.0005173785301354
 31    -0.0002476600000481
 32     0.0000041013596898
 33     0.0000040742513826
 34     0.0067049159239567
 35    -0.0078568367719316
 36    -0.0000070247627660
 37     0.0000114689754890
 38    -0.0152919832244587
 39     0.1830534477621619
 40    -0.0000005342487999
 41     0.0000267714373573
 42     0.0103347913398242
 43    -0.1033043121513213
 44    -0.0000395528171084
 45    -0.0000207181598425
 46     0.0468099991632082
 47    -0.1043898477295661
 48    -0.0000109178774634
 49     0.0000722459036522
 50    -0.0400999197333902
 51    -0.0219798699746230
 52     0.0000158551735094
 53    -0.2055421640407228
 54     0.0034060945960968
 55     0.0754710740995807
 56    -0.0993637274791269
 57     0.2543246802298509
 58    -0.0051471294765383
 59     0.0565526525257269
 60    -0.0578837620992375
 61     0.2055512566232167
 62     0.0034392485492695
 63     0.0754451837874959
 64     0.0993373294794939
 65    -0.2543777942754061
 66    -0.0051241563036867
 67     0.0565473736264465
 68     0.0578349217368814
 69     0.1811145809582106
 70     0.0106725068799325
 71    -0.0058579015553715
 72    -0.1021447689313351
 73     0.2225074482654866
 74     0.0682520098092115
 75     0.0772258587153658
 76     0.0308981490856793
 77    -0.1811243563725982
 78     0.0106437071181213
 79    -0.0058700925106286
 80     0.1021281421380759
 81    -0.2226392972939918
 82     0.0682574583170435
 83     0.0772093524430416
 84    -0.0308709647041064
 85    -0.2367170089402683
 86     0.0260671879013752
 87    -0.0359556298386347
 88    -0.0594966402003846
 89    -0.1613685417204110
 90     0.0761216108437901
 91     0.1029764379542700
 92     0.0808964979739038
 93     0.2367145476012078
 94     0.0260510982372457
 95    -0.0359495314199387
 96     0.0594793857645271
 97     0.1613228633670238
 98     0.0761249311943642
 99     0.1029647212679092
 100    -0.0809857375206525
 101    -0.0000131499767689
 102    -0.0660018494083950
 103     0.0881351585863372
 104    -0.0000044274307412
 105     0.0000113932137180
 106     0.1266387836192090
 107     0.1659006585444168
 108    -0.0000534074933592
 109    -0.0000106909830088
 110     0.0221090899151895
 111    -0.0293840751574984
 112    -0.0000056397045814
 113     0.0000314391433181
 114    -0.0401407348924761
 115    -0.0525755020942124
 116    -0.0000170916197832
 117     0.0000040574178483
 118    -0.0110399367601312
 119     0.0144625107804040
 120     0.0000056175024320
 121     0.0000078480838119
 122     0.0192258043904629
 123     0.0248449201307430
 124     0.0000160621827148
 125    -0.0052069710898298
 126     0.0044175958073540
 127    -0.1405880968852985
 128    -0.0917554065055504
 129     0.0051696724699823
 130    -0.0044241902662422
 131     0.1406300429735617
 132     0.0917885057524879
 133    -0.0341236145279047
 134    -0.0205367356223908
 135    -0.1769937999219375
 136    -0.1027873383387479
 137     0.0341665191166753
 138     0.0205487643646397
 139     0.1770823780989774
 140     0.1028328589136699
 141     0.1197718379313668
 142     0.0601800391872106
 143    -0.0648483018923275
 144    -0.0179178943969246
 145    -0.1197466365663724
 146    -0.0601709930311606
 147     0.0649073343407231
 148     0.0179458136388766
 149     0.0016303263695740
 150     0.0003849337244479
 151     0.0009842115183728
 152     0.0004082100246190
 153    -0.0000015746829713
 154    -0.0000138407689558
 155    -0.0110733783508777
 156    -0.0127928616232026
 157     0.0000119963640118
 158    -0.0003491060595571
 159    -0.0012042057562608
 160     0.0000968411281279
 161    -0.0006746156123786
 162     0.0003218094535541
 163     0.0004991538209094
 164     0.0037209943836133
 165     0.0051680327040146
 166    -0.0022967873543748
 167     0.0009253021537152
 168     0.0005018872972674
 169    -0.0001612095388104
 170    -0.0006024806519146
 171     0.0017387625616888
 172    -0.0019126813292139
 173     0.0027886182280754
 174     0.0061332344631562
 175    -0.0083653551471735
 176     0.0005168334534061
 177    -0.0001205356194595
 178     0.0010768186418510
 179     0.0006828493852199
 180    -0.0020627058616184
 181     0.0014651520509690
 182     0.0050446943273476
 183     0.0046425218631753
 184     0.0106211551966457
 Sym= 158A
 Ene= 0.658338
 Spin= Alpha
 Occup= 2.000000
  1    -0.0000702705625545
  2     0.0002587752812180
  3    -0.0000146940435297
  4    -0.0001476839956153
  5    -0.0000578358311712
  6    -0.0001123629722243
  7     0.0007502898892813
  8    -0.0010865163881513
  9    -0.0004267978509768
 10     0.0001804934338694
 11    -0.0001137891900284
 12     0.0000337030733247
 13    -0.0001305652407569
 14    -0.0003620119864184
 15     0.0005047482415154
 16     0.0005821205935719
 17    -0.0013729052034411
 18    -0.0016445883380918
 19     0.0000984165094260
 20     0.0000331495029559
 21    -0.0002093676953891
 22     0.0001551895457715
 23     0.0004216842500290
 24    -0.0004034827904820
 25     0.0010865273431355
 26    -0.0010331149940371
 27     0.0020682628033584
 28     0.0003605268767071
 29    -0.0000675401232993
 30    -0.0002174173383669
 31     0.0000742519866789
 32    -0.0000029712805839
 33    -0.0000046044290521
 34    -0.0021802424622858
 35     0.0025667421073110
 36     0.0000004388197537
 37    -0.0000051803425847
 38     0.0018934751761910
 39    -0.1205232739431228
 40     0.0000003741440807
 41    -0.0000082147388835
 42     0.0273574892144358
 43     0.1237343968028784
 44    -0.0000006866508520
 45     0.0000161511594243
 46    -0.0024227485887914
 47     0.0317937752719933
 48    -0.0000030100311807
 49     0.0000033728702887
 50    -0.1010327491893318
 51    -0.1601525679355882
 52     0.0000111130519322
 53     0.2561560819809821
 54     0.0036080395080212
 55     0.0538554996919181
 56     0.0533953268220193
 57    -0.1883961280684708
 58    -0.0052442543125575
 59     0.0228213022264134
 60     0.1077057409713635
 61    -0.2561797214403155
 62     0.0035890681791020
 63     0.0538784498646960
 64    -0.0533916841851519
 65     0.1883980909987416
 66    -0.0052848242215393
 67     0.0228340513805671
 68    -0.1077128459294080
 69    -0.0571431722477003
 70    -0.0027764400926586
 71    -0.0009609250344970
 72     0.0508428992540196
 73     0.3199962585649173
 74     0.0009393045589276
 75     0.0021864226242366
 76     0.1189531498010001
 77     0.0571424016333167
 78    -0.0027620128279814
 79    -0.0009626571212341
 80    -0.0508409734628913
 81    -0.3200204562743286
 82     0.0009722741174881
 83     0.0021659783709678
 84    -0.1189248177384369
 85     0.1021917117067085
 86    -0.0195183987756827
 87     0.0262724083637095
 88     0.0134858578044102
 89    -0.3387735437101987
 90    -0.0066037784183109
 91    -0.0084423934512811
 92     0.1032496256412664
 93    -0.1021932395800717
 94    -0.0195091876195579
 95     0.0262644130057695
 96    -0.0134770874499745
 97     0.3387770508514049
 98    -0.0065765522508812
 99    -0.0084315770145063
 100    -0.1032355573389732
 101     0.0000028283839071
 102     0.0258891135305991
 103    -0.0345891740995012
 104     0.0000094711087013
 105    -0.0000336934351431
 106     0.1184263761460546
 107     0.1564501116880219
 108    -0.0000092382976411
 109     0.0000117177163389
 110    -0.0080955628142922
 111     0.0107759581749903
 112     0.0000055389011865
 113     0.0000148965876544
 114    -0.0385071671368883
 115    -0.0507882892677079
 116    -0.0000053843455561
 117    -0.0000006268464355
 118     0.0039414214914718
 119    -0.0051798540661807
 120    -0.0000067335183674
 121    -0.0000005253795768
 122     0.0184122059921959
 123     0.0239983658741071
 124     0.0000073006885132
 125    -0.1410684628099839
 126    -0.0653521431953757
 127     0.0300162422642166
 128     0.0060612951171438
 129     0.1411046516931430
 130     0.0653659384835267
 131    -0.0300009384311468
 132    -0.0060456790018832
 133     0.0090891635786393
 134    -0.0099715278113519
 135    -0.1055312252660048
 136    -0.0529882739892916
 137    -0.0091061035797213
 138     0.0099660673913940
 139     0.1055767734773372
 140     0.0530097622507155
 141    -0.0668407277287724
 142    -0.0302588100224589
 143     0.1242003936438293
 144     0.0669338998299943
 145     0.0668284638691227
 146     0.0302545499389386
 147    -0.1241774797521763
 148    -0.0669254334159391
 149     0.0017223861896550
 150     0.0003006554921258
 151     0.0010672919871345
 152     0.0003327679942322
 153     0.0000025244150072
 154    -0.0000039314136139
 155    -0.0097722993424027
 156    -0.0114107768543408
 157     0.0000042395443402
 158    -0.0003161757165175
 159    -0.0011396846119837
 160     0.0000679598988349
 161    -0.0006475271135180
 162     0.0002659170764776
 163     0.0004934777921787
 164     0.0033276516015645
 165     0.0047737901298436
 166    -0.0019344096332265
 167     0.0007925205511925
 168     0.0005001447177690
 169    -0.0001518664425936
 170    -0.0005774162671918
 171     0.0015936470547835
 172    -0.0021817715717482
 173     0.0025772287520232
 174     0.0060094411142334
 175    -0.0072436242265391
 176     0.0004330517839090
 177    -0.0001395502018308
 178     0.0009228076196967
 179     0.0006818709110178
 180    -0.0018630290970625
 181     0.0017435141994198
 182     0.0047983588375593
 183     0.0045273782058481
 184     0.0091469474516239
 Sym= 159A
 Ene= 0.690018
 Spin= Alpha
 Occup= 2.000000
  1     0.0008566978023641
  2     0.0000767473077694
  3     0.0014960296526587
  4     0.0002439192628011
  5     0.0023583790047967
  6     0.0036961808836483
  7     0.0041653579314045
  8     0.0026836205373756
  9     0.0095344678118609
 10    -0.0017169924681528
 11    -0.0001909781940449
 12    -0.0000000290275048
 13    -0.0000001331965373
 14     0.0024421346377483
 15     0.0029573376224388
 16     0.0000005874329058
 17    -0.0043617429940209
 18     0.0095593245440401
 19     0.0008568171382902
 20     0.0000765223233624
 21    -0.0014962924335608
 22    -0.0002438943214701
 23     0.0023588933302894
 24     0.0036953932047127
 25    -0.0041634027899388
 26     0.0026835359620289
 27     0.0095367811489725
 28    -0.0000434617321588
 29    -0.0000296844240007
 30    -0.0000003120886324
 31     0.0000032741442140
 32    -0.0160331727916593
 33    -0.0370031097765684
 34    -0.0000018148350275
 35     0.0000647416281457
 36    -0.0028877629006560
 37     0.2322222806852238
 38     0.0000300534633495
 39    -0.0000083847794814
 40     0.1556862150175340
 41     0.1878674803352809
 42    -0.0000296939393785
 43    -0.0000088398723848
 44    -0.2041528312804085
 45     0.1341532394423760
 46    -0.0000036343967189
 47     0.0000256184205744
 48    -0.1886928559552943
 49     0.1069200962957384
 50    -0.0000073779101773
 51     0.0000002919736994
 52     0.0212088679233671
 53    -0.0648159821981121
 54     0.0017341979709753
 55     0.2024051821651963
 56    -0.0687525607362030
 57     0.0320533580140832
 58    -0.0024343391214267
 59     0.2062240991445494
 60    -0.0562629132158252
 61    -0.0648256886174663
 62    -0.0017557236657092
 63    -0.2024258029653824
 64    -0.0687471835814950
 65     0.0320813855291847
 66     0.0024125291780970
 67    -0.2062668341612019
 68    -0.0562452897201287
 69    -0.0998229812156683
 70    -0.0972821844462707
 71     0.1274609478870314
 72     0.1454281873705276
 73    -0.0535869503826786
 74     0.0324084900774465
 75     0.0457764478403658
 76    -0.0415433348145513
 77    -0.0998577725313365
 78     0.0972560671298948
 79    -0.1275035212476321
 80     0.1453652207355365
 81    -0.0536061064954460
 82    -0.0323996091568359
 83    -0.0457887458118947
 84    -0.0415301515061771
 85     0.0916358931174800
 86    -0.1285705115027578
 87     0.1691412541402016
 88     0.1029657037368931
 89     0.0304145196750644
 90     0.0389189843887927
 91     0.0502369068982189
 92    -0.0445549975883002
 93     0.0916517212103988
 94     0.1285889790560792
 95    -0.1692106021782764
 96     0.1028996876861720
 97     0.0304209347970599
 98    -0.0389133288673657
 99    -0.0502464200153333
 100    -0.0445507807244897
 101     0.1336123923248898
 102    -0.0000119740271127
 103    -0.0000617490840256
 104     0.2411772878437617
 105     0.0483396799753334
 106     0.0000109711030100
 107    -0.0000117271091323
 108    -0.0713438867204319
 109     0.1316943904073987
 110    -0.0000067603269730
 111    -0.0000213217954922
 112     0.0648364613404844
 113     0.0356302878746831
 114    -0.0000000577291395
 115    -0.0000028760686446
 116    -0.0187571734592740
 117    -0.0046518953674223
 118     0.0000042045618206
 119     0.0000000488461969
 120    -0.0571826734554557
 121    -0.0004460042242989
 122    -0.0000010419797769
 123    -0.0000009605855402
 124     0.0145946920994162
 125    -0.1470974748869644
 126    -0.0625211815275212
 127    -0.1462888138657527
 128    -0.0597651352566454
 129    -0.1471107065864689
 130    -0.0625237565367720
 131    -0.1463349601350674
 132    -0.0597848919729595
 133    -0.1289744100342611
 134    -0.0578719436069416
 135    -0.0274939443571833
 136    -0.0242602184488607
 137    -0.1289380551920425
 138    -0.0578538279542848
 139    -0.0274824223667373
 140    -0.0242565901534315
 141    -0.1521482298127841
 142    -0.0631423623326820
 143    -0.0441069307370356
 144    -0.0172432067655111
 145    -0.1521771149890166
 146    -0.0631536396621693
 147    -0.0441055498091623
 148    -0.0172425989195964
 149     0.0000118026203101
 150    -0.0000081764275423
 151     0.0000000309639253
 152    -0.0000008355269235
 153    -0.0042595999290741
 154    -0.0100922437471511
 155     0.0000010064380951
 156     0.0000183361927628
 157     0.0005445833872731
 158    -0.0002389193612536
 159     0.0000220318802683
 160     0.0004171503270934
 161    -0.0000680749959513
 162     0.0006505108027833
 163     0.0010554225792813
 164    -0.0011503383103849
 165     0.0007397941059578
 166    -0.0026356113690008
 167     0.0004787080795103
 168    -0.0000541608710204
 169    -0.0000000116669880
 170     0.0000000076409386
 171     0.0006729878441282
 172     0.0008553024648467
 173    -0.0000000571067009
 174    -0.0012080750004321
 175    -0.0026415688547826
 176    -0.0002389850216426
 177     0.0000220291158409
 178    -0.0004172869035351
 179     0.0000680737634888
 180     0.0006506241665168
 181     0.0010558381733417
 182     0.0011501968463576
 183     0.0007397402986638
 184    -0.0026370351288231
 Sym= 160A
 Ene= 0.718911
 Spin= Alpha
 Occup= 2.000000
  1    -0.0006627573232937
  2    -0.0000587384649499
  3    -0.0011577505309077
  4    -0.0001988824776620
  5    -0.0017886500716679
  6    -0.0028432834338599
  7    -0.0031690314933019
  8    -0.0020550291250449
  9    -0.0071961079151349
 10     0.0013244634817534
 11     0.0001500752459986
 12     0.0000000052212704
 13    -0.0000000086157770
 14    -0.0018560163766871
 15    -0.0022109166278830
 16    -0.0000001376776517
 17     0.0032533370268611
 18    -0.0071811436339238
 19    -0.0006627235896553
 20    -0.0000587488746715
 21     0.0011577018463310
 22     0.0001988784708312
 23    -0.0017886961217348
 24    -0.0028429101598484
 25     0.0031689528479966
 26    -0.0020551283745865
 27    -0.0071951983081355
 28     0.0000417293201080
 29     0.0000260023299327
 30     0.0000003629157045
 31    -0.0000022901517275
 32     0.0127296645858305
 33     0.0283724239865836
 34    -0.0000000558391273
 35    -0.0000772090990343
 36     0.0023114340722278
 37     0.0711436864674269
 38     0.0000309194374411
 39    -0.0000094727722182
 40     0.1788352491441003
 41     0.0806123529883715
 42    -0.0000151324187864
 43    -0.0000022998161858
 44    -0.1002986555075482
 45    -0.0061514296839199
 46     0.0000201861883484
 47    -0.0000263299857508
 48     0.1925253909006528
 49     0.1356795199899299
 50    -0.0000157923192660
 51     0.0000016454141495
 52     0.1590938627969483
 53     0.1329273159705942
 54     0.0026853312542225
 55     0.1524440880201247
 56     0.1615357668257092
 57    -0.1371271846752240
 58    -0.0003047903020061
 59     0.0804336889130475
 60     0.1882266808042647
 61     0.1328839398573363
 62    -0.0026185785276885
 63    -0.1524243879890374
 64     0.1615375227472548
 65    -0.1370880556803928
 66     0.0003743264383806
 67    -0.0804564938328304
 68     0.1882220652237118
 69     0.0243958749721880
 70     0.0691946433953852
 71    -0.0851521223202476
 72    -0.0769701159475199
 73    -0.0864246504046541
 74     0.0962418709585314
 75     0.1230741081616566
 76    -0.1370072776082481
 77     0.0244260866113365
 78    -0.0691663976838477
 79     0.0851562467644599
 80    -0.0769537834034262
 81    -0.0864716821242283
 82    -0.0962181159183195
 83    -0.1231135144755201
 84    -0.1369694236510991
 85    -0.0394185759677656
 86     0.0864800293066698
 87    -0.1153471855782614
 88    -0.0300358239301099
 89     0.0850529645609650
 90     0.1184742656429239
 91     0.1568090814853175
 92    -0.0987973031880332
 93    -0.0394811587476964
 94    -0.0865059790890291
 95     0.1153952253251119
 96    -0.0299801018801446
 97     0.0850673506099562
 98    -0.1184759880535721
 99    -0.1568487817070735
 100    -0.0987755698177540
 101    -0.0731057899442066
 102     0.0000177637781922
 103     0.0000325860170140
 104    -0.1798205686827307
 105     0.1292265785085042
 106     0.0000258516799663
 107    -0.0000448271017934
 108    -0.2190436140234494
 109    -0.1077606996264505
 110     0.0000030776245657
 111     0.0000186847108848
 112    -0.0477882076812434
 113     0.1149420724045767
 114     0.0000013717629508
 115    -0.0000044202572360
 116    -0.0556394532095511
 117     0.0079874068183744
 118    -0.0000024182988216
 119     0.0000032523357986
 120     0.0489693532131526
 121    -0.0056892845854500
 122    -0.0000047830777556
 123    -0.0000087104923251
 124     0.0488664931812354
 125    -0.1054988822344076
 126    -0.0386014928745929
 127    -0.0721876881825594
 128    -0.0319133589381913
 129    -0.1054743279155461
 130    -0.0385968263616099
 131    -0.0722259174288225
 132    -0.0319287523359211
 133     0.1065742482376385
 134     0.0266840280566149
 135    -0.1341446008218812
 136    -0.0497135690130994
 137     0.1065367044069373
 138     0.0266730720048643
 139    -0.1341170601764040
 140    -0.0497040397146525
 141     0.1044477999527406
 142     0.0437755024383362
 143    -0.1389825091263535
 144    -0.0588299220205749
 145     0.1045085605582985
 146     0.0438013964444364
 147    -0.1389980158958043
 148    -0.0588368130215229
 149     0.0000446089038061
 150    -0.0000280387252026
 151    -0.0000005005831448
 152    -0.0000030462937397
 153    -0.0132230524154488
 154    -0.0304479832889192
 155     0.0000008594898077
 156     0.0000860953375606
 157     0.0014949787991724
 158    -0.0007336169089158
 159     0.0000674341035246
 160     0.0012813331148082
 161    -0.0002202169643400
 162     0.0019505278219781
 163     0.0032472880983349
 164    -0.0034644240163075
 165     0.0022415795993784
 166    -0.0078724406387073
 167     0.0014656651196872
 168    -0.0001695862731058
 169     0.0000000159739184
 170    -0.0000001498166833
 171     0.0020217723745302
 172     0.0025706567865725
 173     0.0000001306164431
 174    -0.0035703302723485
 175    -0.0078521916948860
 176    -0.0007336050451116
 177     0.0000676992705160
 178    -0.0012812807022007
 179     0.0002202398991061
 180     0.0019503841211066
 181     0.0032485872646116
 182     0.0034660485803703
 183     0.0022418748806293
 184    -0.0078716606740499
 Sym= 161A
 Ene= 0.754947
 Spin= Alpha
 Occup= 2.000000
  1     0.0014374912859927
  2     0.0001151536687595
  3     0.0025141372447173
  4     0.0004573156688783
  5     0.0039237553832009
  6     0.0057225083630684
  7     0.0069319759224011
  8     0.0045446348457136
  9     0.0155923966521504
 10    -0.0028618712119852
 11    -0.0003149935267740
 12     0.0000002356410596
 13    -0.0000009623461036
 14     0.0040877917380739
 15     0.0040737850760383
 16     0.0000037838264959
 17    -0.0068686152582466
 18     0.0154575822437227
 19     0.0014384792318569
 20     0.0001136095826532
 21    -0.0025153710354522
 22    -0.0004571415836337
 23     0.0039267446904500
 24     0.0057198249984048
 25    -0.0069193123576293
 26     0.0045438783681050
 27     0.0156074306172850
 28    -0.0001179999301436
 29    -0.0000708308743483
 30    -0.0000027742610782
 31     0.0000002979326333
 32    -0.0321040597149711
 33    -0.0654200769419321
 34    -0.0000141646811547
 35     0.0002717498856088
 36    -0.0097140397742969
 37     0.0427848837110147
 38    -0.0001021436596420
 39    -0.0005208316218616
 40    -0.1159958836827660
 41    -0.0517918747455653
 42     0.0000383994300969
 43    -0.0004904573274925
 44     0.0991913817368739
 45     0.1851691628847328
 46     0.0004464152348760
 47    -0.0004986550185224
 48    -0.1990609537821407
 49     0.0046795064479869
 50    -0.0001434831650583
 51    -0.0000931854259304
 52     0.0936565895454236
 53     0.0545263050497474
 54    -0.0037684696891487
 55    -0.0370033897414148
 56     0.1078091199270988
 57    -0.0695634139294771
 58     0.0026113299006897
 59    -0.0959941812563823
 60     0.0815009413695889
 61     0.0538522885725190
 62     0.0038586006702136
 63     0.0369099684188763
 64     0.1086599548487065
 65    -0.0707827289032692
 66    -0.0026174434037695
 67     0.0963566806514025
 68     0.0809698575461969
 69     0.1796748092511128
 70    -0.1598405977032641
 71     0.2058630261297853
 72    -0.2138017443308959
 73    -0.0056557383619288
 74     0.0355568968080101
 75     0.0437441955701708
 76    -0.0305507773677554
 77     0.1789006694169739
 78     0.1600810852463982
 79    -0.2061633735966623
 80    -0.2146439071912690
 81    -0.0057312875545193
 82    -0.0356236467190764
 83    -0.0438843380803349
 84    -0.0301718811780734
 85    -0.1738681562912977
 86    -0.0023713075875225
 87     0.0035681589725910
 88    -0.2682508425381714
 89     0.0142535488584341
 90     0.0402121834494972
 91     0.0537426779057573
 92    -0.0070500706274509
 93    -0.1750676193366566
 94     0.0020729299601430
 95    -0.0030558925757999
 96    -0.2675780695284448
 97     0.0136614326774730
 98    -0.0400403782211715
 99    -0.0535132378429563
 100    -0.0071745665914172
 101    -0.1475580454923951
 102     0.0002945689959407
 103    -0.0004597068437891
 104     0.2593054900579868
 105     0.0317592503517681
 106    -0.0000844629303887
 107    -0.0001436554100408
 108    -0.0869271458379056
 109     0.2634387109934730
 110    -0.0000716769351979
 111     0.0000465177697781
 112     0.0873425057994676
 113     0.0531145516491771
 114     0.0000214706040917
 115     0.0000276770859362
 116    -0.0221096226920658
 117    -0.0384192149073886
 118     0.0000368314981417
 119    -0.0000570933413823
 120    -0.1387583245123241
 121    -0.0052391349855288
 122    -0.0000125747598619
 123    -0.0000188585480316
 124     0.0243369287896701
 125     0.0559109902281789
 126    -0.0000431648469730
 127     0.0633189601207280
 128     0.0257575611393563
 129     0.0564383973339191
 130     0.0002001115498906
 131     0.0642772212238746
 132     0.0261754873119224
 133    -0.1656915401504271
 134    -0.0695020899658109
 135    -0.0536549622334350
 136    -0.0129594701102701
 137    -0.1654034890821838
 138    -0.0693266908559391
 139    -0.0536006252852131
 140    -0.0128569610922803
 141    -0.0421537760130794
 142    -0.0051738372901071
 143    -0.0494783433620390
 144    -0.0205136499578127
 145    -0.0410774985490517
 146    -0.0047196749307104
 147    -0.0489704463206986
 148    -0.0202979487339059
 149     0.0000236122342124
 150    -0.0000143287533430
 151    -0.0000010696778671
 152    -0.0000011591446592
 153    -0.0059859905957439
 154    -0.0130804436706594
 155     0.0000041568985747
 156     0.0000585974977253
 157     0.0008838084371353
 158    -0.0003131276994440
 159     0.0000277002793426
 160     0.0005475094381133
 161    -0.0000998881399988
 162     0.0008201904656401
 163     0.0013637379217361
 164    -0.0014653392534255
 165     0.0009558397202280
 166    -0.0032898675167780
 167     0.0006233985233730
 168    -0.0000722875388867
 169     0.0000000907652420
 170     0.0000002229023489
 171     0.0008531223152412
 172     0.0010276006344307
 173    -0.0000011181664652
 174    -0.0014629007629209
 175    -0.0032595587922853
 176    -0.0003133860898306
 177     0.0000273470356405
 178    -0.0005477745139721
 179     0.0000998490957724
 180     0.0008209870983945
 181     0.0013631662996461
 182     0.0014622309606861
 183     0.0009558244788017
 184    -0.0032931078430227
 Sym= 162A
 Ene= 0.756063
 Spin= Alpha
 Occup= 2.000000
  1    -0.0001313339716158
  2     0.0005659900951520
  3    -0.0000209166982011
  4    -0.0003426658578216
  5    -0.0000875390321983
  6    -0.0003614887315576
  7     0.0012745996800766
  8    -0.0021880916771135
  9    -0.0007237965673620
 10     0.0002394760030231
 11    -0.0002924450534175
 12     0.0000668656978048
 13    -0.0002847273278882
 14    -0.0006847924192778
 15     0.0017994024187879
 16     0.0011122279255521
 17    -0.0033228830945089
 18    -0.0023333712554706
 19     0.0001195590037194
 20     0.0001056253826330
 21    -0.0002789194445854
 22     0.0003950188275278
 23     0.0007443463105555
 24    -0.0015228315834170
 25     0.0024690474715526
 26    -0.0024011931422585
 27     0.0029279560497301
 28     0.0012056202237530
 29    -0.0000318743915792
 30    -0.0007783403920919
 31     0.0000821351104508
 32     0.0000724426061931
 33     0.0001573722408746
 34    -0.0035894601749085
 35     0.0040949655272799
 36     0.0000066770736500
 37    -0.0001093359323985
 38    -0.0326120543846912
 39    -0.2023951189831855
 40     0.0002772766009111
 41     0.0001290811889328
 42     0.0095767270388439
 43    -0.1845007039506001
 44    -0.0002332585989191
 45    -0.0004495287420534
 46     0.1831870815640624
 47    -0.2030665116892166
 48     0.0004316544988311
 49    -0.0000072059042531
 50    -0.0534494126703742
 51    -0.0369403544424695
 52    -0.0002175003150205
 53     0.1291331867513563
 54     0.0104390534364254
 55    -0.0248941023457361
 56    -0.1619917215589826
 57     0.2322229351336069
 58    -0.0073965441378654
 59     0.0736797244259590
 60     0.1010426842875130
 61    -0.1294119662199781
 62     0.0104837619909982
 63    -0.0250391446049200
 64     0.1614508376185107
 65    -0.2318803449362678
 66    -0.0074217726143112
 67     0.0732158965967095
 68    -0.1014657901825514
 69     0.1393843777936550
 70     0.0619012556915119
 71    -0.0916047818737260
 72     0.1391423656322498
 73     0.0123898524134320
 74    -0.0144513917972437
 75    -0.0259292675217924
 76    -0.0671004799870759
 77    -0.1402930148654630
 78     0.0611063824163223
 79    -0.0905522587049511
 80    -0.1381103251118209
 81    -0.0123708420034136
 82    -0.0142845057771720
 83    -0.0257041565204724
 84     0.0672505781891807
 85     0.2390619831320597
 86    -0.0716416869083951
 87     0.0955358331501044
 88    -0.1356033492108264
 89     0.1099621248038915
 90     0.0333296560707734
 91     0.0448221126579976
 92     0.0257751870093025
 93    -0.2382008259076346
 94    -0.0716223349439174
 95     0.0954516355328064
 96     0.1369819341563567
 97    -0.1100310902921372
 98     0.0335190905706971
 99     0.0450628084365113
 100    -0.0257558424720167
 101     0.0003904381151177
 102     0.1135227786442997
 103    -0.1504700536260231
 104    -0.0006419652226519
 105    -0.0000694130884777
 106    -0.0344729033567648
 107    -0.0460683835039730
 108     0.0002081542201901
 109    -0.0006380006990939
 110    -0.0220640501851290
 111     0.0292063668911609
 112    -0.0002106635642391
 113    -0.0001264872290404
 114     0.0077079265823464
 115     0.0102875536787006
 116     0.0000523674837257
 117     0.0001034523830436
 118     0.0097392351910638
 119    -0.0127712556705204
 120     0.0003296783905261
 121     0.0000165778471513
 122    -0.0034735520691198
 123    -0.0045856317476057
 124    -0.0000559060713592
 125    -0.0975008455937599
 126    -0.0446012408642027
 127    -0.1861502136438148
 128    -0.0807924176780412
 129     0.0972456886067977
 130     0.0446135485509452
 131     0.1858588085557358
 132     0.0806744064805105
 133    -0.0333199266241740
 134    -0.0252822939953625
 135    -0.0072781216785241
 136    -0.0187078720427201
 137     0.0341335339069103
 138     0.0256256747384458
 139     0.0075389551130985
 140     0.0187704467062895
 141    -0.2277150477559658
 142    -0.0959545785966386
 143    -0.0962401850139549
 144    -0.0408136704873088
 145     0.2278928650086172
 146     0.0959694065245228
 147     0.0964726533612350
 148     0.0409102941060096
 149    -0.0004301307845556
 150    -0.0000112508513266
 151    -0.0002716019667005
 152    -0.0000307188137731
 153     0.0000123149702619
 154     0.0000309137096102
 155     0.0013487858483570
 156     0.0015421947443764
 157     0.0000043644881904
 158     0.0000487588933585
 159     0.0002172600243452
 160    -0.0000071786859757
 161     0.0001316666025953
 162    -0.0000309398133286
 163    -0.0001365054473066
 164    -0.0004875137646346
 165    -0.0008357072114882
 166     0.0002658729964890
 167    -0.0000903480929296
 168    -0.0001122792323290
 169     0.0000249582753502
 170     0.0001089351171881
 171    -0.0002598700005125
 172     0.0007006999727456
 173    -0.0004225795412116
 174    -0.0012799846127489
 175     0.0008767369979347
 176    -0.0000463442254697
 177     0.0000411901290670
 178    -0.0001072454095715
 179    -0.0001513501602182
 180     0.0002852094542501
 181    -0.0005915233004805
 182    -0.0009437023152966
 183    -0.0009193702316074
 184    -0.0011129899625823
 Sym= 163A
 Ene= 0.778397
 Spin= Alpha
 Occup= 2.000000
  1     0.0001203701167202
  2     0.0000059442177448
  3     0.0002111016984606
  4     0.0000391497035059
  5     0.0003779043648062
  6     0.0002970189342248
  7     0.0006414265401849
  8     0.0004270441746611
  9     0.0014479293139404
 10    -0.0002386215442389
 11    -0.0000212313117870
 12     0.0000000654108776
 13    -0.0000002471395185
 14     0.0003952700668119
 15     0.0001145670125600
 16     0.0000008210919491
 17    -0.0006089492109422
 18     0.0014267725491357
 19     0.0001206563783906
 20     0.0000055554759349
 21    -0.0002114652498613
 22    -0.0000391045688254
 23     0.0003786246059277
 24     0.0002968343167741
 25    -0.0006383504524967
 26     0.0004267283219931
 27     0.0014527150223888
 28    -0.0000135211574054
 29    -0.0000084812631841
 30    -0.0000005314390725
 31    -0.0000017446478527
 32    -0.0043020815078126
 33    -0.0073164063210694
 34    -0.0000038832763946
 35     0.0000354758754299
 36    -0.0027355399286305
 37     0.0399003107166069
 38     0.0000226105959912
 39     0.0000525194967570
 40     0.2246872015706678
 41    -0.0452576352642766
 42    -0.0000432379317148
 43     0.0001019877898691
 44    -0.2483406230239137
 45     0.1662595874074493
 46     0.0000984628014026
 47    -0.0001279945223261
 48     0.1068519506776533
 49    -0.0624928071338998
 50     0.0000734056845429
 51     0.0000646019378469
 52    -0.2996324345764786
 53     0.0224599902312430
 54     0.0012925801053925
 55     0.1485366813303581
 56     0.0052347443411606
 57    -0.0104293714957547
 58    -0.0032233217886990
 59     0.1088678504043809
 60     0.0627527806074349
 61     0.0226819144608054
 62    -0.0012830090055851
 63    -0.1487348842173041
 64     0.0051536344396598
 65    -0.0103852504342347
 66     0.0032468036662935
 67    -0.1086865387556325
 68     0.0628603033343462
 69     0.0865880899155367
 70    -0.0387998299387926
 71     0.0518465094842174
 72    -0.1430246942377091
 73    -0.0779271418176081
 74    -0.1346828946792723
 75    -0.1720357267064911
 76    -0.0533744640724992
 77     0.0863846486589043
 78     0.0388109802163861
 79    -0.0518197699747519
 80    -0.1432012968963551
 81    -0.0777856951607168
 82     0.1347107931797228
 83     0.1720663538599621
 84    -0.0535812076069176
 85    -0.0970197767865647
 86     0.0754648637368474
 87    -0.0998256757213200
 88    -0.1221885754207000
 89     0.0633126677371539
 90    -0.0839105036551499
 91    -0.1113856628030223
 92    -0.1274496187109309
 93    -0.0972351743769504
 94    -0.0754604873873668
 95     0.0998767953348961
 96    -0.1220055347719656
 97     0.0635601473192294
 98     0.0838860054081081
 99     0.1112938118083003
 100    -0.1273643060771583
 101    -0.1258053280364162
 102     0.0000865430739197
 103    -0.0000998129431310
 104    -0.0345011325848537
 105     0.0046506200161332
 106     0.0000282695265837
 107     0.0001400110219945
 108     0.2942689563871509
 109     0.0286242649748695
 110    -0.0000176635125108
 111     0.0000194754181196
 112     0.0019409550675265
 113    -0.2272192591280399
 114    -0.0000112582933236
 115    -0.0000184181179494
 116     0.0803510588882237
 117    -0.0084351573057177
 118     0.0000087316233212
 119    -0.0000118780387476
 120    -0.0213252624734546
 121     0.0313834520299742
 122     0.0000217845530904
 123     0.0000391268607977
 124    -0.1126963406977733
 125    -0.1032534887451135
 126    -0.0473131558770739
 127    -0.1035826631662645
 128    -0.0239652626185273
 129    -0.1035108851531907
 130    -0.0474146681601449
 131    -0.1035194020573472
 132    -0.0239476237932399
 133    -0.0164993778646715
 134    -0.0184096889255827
 135     0.1644687526057442
 136     0.0594827214576810
 137    -0.0163817994684131
 138    -0.0183738087196157
 139     0.1643798858352040
 140     0.0594491468643830
 141     0.0710499569477690
 142     0.0335879092359024
 143     0.1212842427845974
 144     0.0426190707611110
 145     0.0711842700815239
 146     0.0336475013109850
 147     0.1210973776318194
 148     0.0425399574018085
 149    -0.0001180748124347
 150     0.0000657712169369
 151     0.0000017848978625
 152     0.0000021972830523
 153     0.0259100145822299
 154     0.0536446440128674
 155    -0.0000065103812194
 156    -0.0002754313231724
 157    -0.0058428278091463
 158     0.0012381692040819
 159    -0.0000970193540191
 160    -0.0021659035534918
 161     0.0004136956790830
 162    -0.0032621214525046
 163    -0.0051903359860332
 164     0.0058241055176401
 165    -0.0038515732911822
 166     0.0130012125974080
 167    -0.0024583819123894
 168     0.0002753964740948
 169    -0.0000001509906814
 170    -0.0000000071438432
 171    -0.0034092190606960
 172    -0.0036580881815699
 173     0.0000008133230611
 174     0.0056303768052321
 175     0.0128274606835659
 176     0.0012385163383153
 177    -0.0000970453427695
 178     0.0021662014864394
 179    -0.0004137000935187
 180    -0.0032627405443699
 181    -0.0051927906227715
 182    -0.0058235312667958
 183    -0.0038520120681962
 184     0.0130053386142517
 Sym= 164A
 Ene= 0.780301
 Spin= Alpha
 Occup= 2.000000
  1    -0.0001683097311019
  2     0.0007640851299518
  3    -0.0000148518013501
  4    -0.0004721195586337
  5    -0.0000869230050656
  6    -0.0005539232064943
  7     0.0015962734524598
  8    -0.0029223750035717
  9    -0.0008678431051432
 10     0.0002638717220695
 11    -0.0004146729708381
 12     0.0000899036253073
 13    -0.0003761096331636
 14    -0.0008841728021626
 15     0.0026586894565949
 16     0.0014345943954537
 17    -0.0046441599661217
 18    -0.0027428165470761
 19     0.0001361687831797
 20     0.0001583282292352
 21    -0.0003315062601034
 22     0.0005525213627579
 23     0.0009684732796117
 24    -0.0021833231397412
 25     0.0033096218218673
 26    -0.0032714099418968
 27     0.0035736538036014
 28     0.0019763210561856
 29    -0.0000108187366453
 30    -0.0012963413544760
 31     0.0000920227998459
 32    -0.0000025074084107
 33     0.0000138934401018
 34    -0.0045909747677687
 35     0.0051991382450353
 36    -0.0000328302714584
 37    -0.0000099454602545
 38    -0.0044513649688377
 39     0.0031004281776395
 40    -0.0000446238202838
 41     0.0000136156804657
 42    -0.0064665821037594
 43     0.0524558634123382
 44     0.0000511083558559
 45    -0.0000785092363160
 46     0.0770489286602882
 47    -0.0973321023420851
 48    -0.0000108650059941
 49     0.0000171744977657
 50     0.0391077027692838
 51     0.0386781003328492
 52     0.0000643220564200
 53    -0.0475825385633269
 54    -0.0011260293425728
 55    -0.0826940008402973
 56     0.0398775192857107
 57     0.0052134048397132
 58     0.0010343398420645
 59     0.0911423845903094
 60     0.0130727431255703
 61     0.0475818431742816
 62    -0.0011390946389514
 63    -0.0826373180700065
 64    -0.0398664897785844
 65    -0.0052192238161909
 66     0.0010266676906016
 67     0.0911853882743671
 68    -0.0130973474503750
 69     0.1362064711963715
 70    -0.1536547936030040
 71     0.1921008604897747
 72     0.2919426990443523
 73    -0.0273907482578840
 74     0.0089708599440701
 75     0.0159278292262795
 76     0.0386206277494012
 77    -0.1362906735268437
 78    -0.1537268546625101
 79     0.1923243176163144
 80    -0.2917537675138624
 81     0.0274367729354667
 82     0.0089060869596453
 83     0.0158326967691656
 84    -0.0385926051971702
 85     0.1265353960690489
 86     0.1653752164639769
 87    -0.2145525327215814
 88     0.1061135271141617
 89    -0.0562803717184909
 90    -0.0137032152137988
 91    -0.0189078257928089
 92    -0.0210554661302471
 93    -0.1264430993732190
 94     0.1653953801006455
 95    -0.2145554423881502
 96    -0.1060826760593966
 97     0.0562465536276058
 98    -0.0137409332080134
 99    -0.0189472969080580
 100     0.0211290911598012
 101     0.0000474086716019
 102     0.1437412330898107
 103    -0.1911990584100886
 104    -0.0000762269982798
 105    -0.0000071136142505
 106     0.0238947299125367
 107     0.0319662981829368
 108    -0.0000722145039625
 109    -0.0000448816790137
 110    -0.0379504161018807
 111     0.0503769896252542
 112    -0.0000164557034050
 113     0.0000557647005103
 114    -0.0048720533157448
 115    -0.0065104477532100
 116    -0.0000194931273177
 117     0.0000228729245332
 118     0.0149119046754264
 119    -0.0196420630099591
 120     0.0000106480813448
 121    -0.0000107619186356
 122     0.0021223370407849
 123     0.0028066993510215
 124     0.0000262945132540
 125     0.0922423715754395
 126     0.0146616317838847
 127    -0.0707179230851919
 128    -0.0238356475628879
 129    -0.0922044640775395
 130    -0.0146394014102657
 131     0.0707632862889422
 132     0.0238447170533656
 133    -0.3230725583405856
 134    -0.1176333124881535
 135     0.0149519750025203
 136     0.0013822659706554
 137     0.3231443400411106
 138     0.1176693281110264
 139    -0.0150343763830731
 140    -0.0014132392299732
 141     0.1678003399380517
 142     0.0567620535007148
 143     0.0460430978345245
 144     0.0203363023266339
 145    -0.1678208529832976
 146    -0.0567769462170612
 147    -0.0460977047466211
 148    -0.0203551208925597
 149     0.0002792796321022
 150     0.0000007001899190
 151     0.0001775606224170
 152     0.0000143187633723
 153    -0.0000051474448559
 154    -0.0000134109706993
 155    -0.0007210063261241
 156    -0.0008113796771638
 157    -0.0000036955347067
 158    -0.0000265506529456
 159    -0.0001254266019178
 160     0.0000035720314571
 161    -0.0000776543604838
 162     0.0000146133553703
 163     0.0000900858190761
 164     0.0002588833924901
 165     0.0004765949875365
 166    -0.0001426580265701
 167     0.0000435719800567
 168     0.0000676389979464
 169    -0.0000138342844738
 170    -0.0000618162492063
 171     0.0001440419402805
 172    -0.0004453138884251
 173     0.0002329953756312
 174     0.0007617238096707
 175    -0.0004403262381789
 176     0.0000224606557011
 177    -0.0000262210257055
 178     0.0000534536194623
 179     0.0000904274569682
 180    -0.0001562294022059
 181     0.0003708127464793
 182     0.0005458656515234
 183     0.0005369969340428
 184     0.0005692413331922
 Sym= 165A
 Ene= 0.783324
 Spin= Alpha
 Occup= 2.000000
  1     0.0000174379736224
  2    -0.0000899815439745
  3     0.0000033977264034
  4     0.0000549260346899
  5     0.0000109535756647
  6     0.0000583706492230
  7    -0.0001907050647468
  8     0.0003319949247714
  9     0.0001032722941237
 10    -0.0000294856201837
 11     0.0000477984708257
 12    -0.0000090512739027
 13     0.0000452444427092
 14     0.0000989091489378
 15    -0.0003301739221686
 16    -0.0001678685822188
 17     0.0005443433668776
 18     0.0002928877527886
 19    -0.0000170073654709
 20    -0.0000179534866960
 21     0.0000380299097859
 22    -0.0000639642515150
 23    -0.0001107405635145
 24     0.0002787245376220
 25    -0.0003964535967515
 26     0.0003805771098510
 27    -0.0003966731952582
 28    -0.0001511171325847
 29    -0.0000009242815879
 30     0.0000944170411258
 31    -0.0000094006830558
 32     0.0000025007721680
 33     0.0000039410261476
 34     0.0004869389414849
 35    -0.0005215551663624
 36     0.0000031032433704
 37     0.0000195825697156
 38     0.0151185826597943
 39    -0.0650712973600355
 40     0.0000911238655634
 41    -0.0000457793590471
 42     0.0229932712194404
 43    -0.1928364332297620
 44    -0.0001021250530747
 45     0.0000366194475117
 46    -0.0723124116766768
 47     0.0980312593179212
 48     0.0000764656809703
 49    -0.0000540388892293
 50    -0.1415302925617237
 51    -0.1441428637699855
 52    -0.0001404664048243
 53     0.1710451955845065
 54     0.0006123954006549
 55     0.2071121576850194
 56    -0.1082432501338753
 57     0.0292616709727708
 58    -0.0039127275964542
 59    -0.2110252235216497
 60     0.0375139745835453
 61    -0.1710192903013926
 62     0.0006491307221000
 63     0.2069871815560658
 64     0.1082533725930792
 65    -0.0292725688905488
 66    -0.0039201723575715
 67    -0.2110881313086957
 68    -0.0374315856276835
 69    -0.0632114909110297
 70    -0.0818460541739641
 71     0.1070459920618107
 72     0.0423803053722865
 73     0.1004153721509417
 74    -0.0365795403402951
 75    -0.0606630629538466
 76    -0.1325570140039304
 77     0.0632393172600357
 78    -0.0818456547120093
 79     0.1070721190760597
 80    -0.0423927326024640
 81    -0.1005538189358064
 82    -0.0364170857730437
 83    -0.0604139719537301
 84     0.1324573619918643
 85    -0.0695861222721996
 86     0.0762179751053075
 87    -0.0998151195109548
 88     0.1343264131019544
 89     0.2004925781133589
 90     0.0515221439158308
 91     0.0701985172121175
 92     0.0839389282117851
 93     0.0695607312773576
 94     0.0761547337389876
 95    -0.0996757955775818
 96    -0.1344058795919409
 97    -0.2003866258512849
 98     0.0515987247555498
 99     0.0702588389115717
 100    -0.0841582791427730
 101    -0.0000420397666936
 102    -0.0317407409609824
 103     0.0415786707892286
 104    -0.0000375197409167
 105     0.0000353647592138
 106    -0.0873239757085289
 107    -0.1164524156505609
 108     0.0001744143479728
 109    -0.0000166460824499
 110     0.0019717490646799
 111    -0.0025034511497272
 112    -0.0000078677043685
 113    -0.0001392727004473
 114     0.0175382066099392
 115     0.0233623747806691
 116     0.0000474781241282
 117    -0.0000009274765180
 118    -0.0012262973709201
 119     0.0015586009477227
 120     0.0000073177675007
 121     0.0000312483394880
 122    -0.0076176318472704
 123    -0.0100431321046842
 124    -0.0000646506770349
 125    -0.2446740393303648
 126    -0.1021099316096153
 127     0.1156020229815193
 128     0.0383855761548804
 129     0.2445873573958021
 130     0.1020728616052327
 131    -0.1156787925356715
 132    -0.0383943988758000
 133    -0.0750609914971751
 134    -0.0418272782014757
 135    -0.0455869996639511
 136    -0.0124903416744614
 137     0.0750860071629703
 138     0.0418228980497701
 139     0.0457892005360009
 140     0.0125706738256479
 141     0.1568974898981230
 142     0.0623868068509635
 143    -0.1705691699630818
 144    -0.0740511943756195
 145    -0.1568363426372092
 146    -0.0623620166518116
 147     0.1706855656151032
 148     0.0740887783975945
 149    -0.0010061224469331
 150     0.0000007719222440
 151    -0.0006396158290621
 152    -0.0000500977396830
 153     0.0000114756090655
 154     0.0000338299087051
 155     0.0025805036226716
 156     0.0028849131856821
 157     0.0000155513510957
 158     0.0000949752004007
 159     0.0004556643794935
 160    -0.0000128138622955
 161     0.0002824754533879
 162    -0.0000514564904137
 163    -0.0003293948364366
 164    -0.0009329130175166
 165    -0.0017239179727312
 166     0.0005123650464991
 167    -0.0001532696514695
 168    -0.0002466669221936
 169     0.0000496780991338
 170     0.0002243385091050
 171    -0.0005181485697522
 172     0.0016409374581142
 173    -0.0008409877456280
 174    -0.0027765520493745
 175     0.0015565426524875
 176    -0.0000801492643932
 177     0.0000959386477392
 178    -0.0001904556563631
 179    -0.0003293439811127
 180     0.0005635187874295
 181    -0.0013648340201332
 182    -0.0019845272006918
 183    -0.0019500404543206
 184    -0.0020297064854260
 Sym= 166A
 Ene= 0.795551
 Spin= Alpha
 Occup= 2.000000
  1    -0.0000497489711322
  2    -0.0000071040717665
  3    -0.0000866043285974
  4    -0.0000181147779391
  5    -0.0000717327191916
  6    -0.0004113600810808
  7    -0.0001645674677100
  8    -0.0001064897556875
  9    -0.0003435968906662
 10     0.0000991560388393
 11     0.0000161281393363
 12     0.0000000425894025
 13    -0.0000000562168053
 14    -0.0000753093963225
 15    -0.0003760507431863
 16     0.0000001595141898
 17     0.0001642472541317
 18    -0.0003404225189155
 19    -0.0000496287999962
 20    -0.0000071876561996
 21     0.0000864817658824
 22     0.0000181196643605
 23    -0.0000715551907144
 24    -0.0004108281686374
 25     0.0001651812296828
 26    -0.0001065550099987
 27    -0.0003416631239164
 28     0.0000028405883974
 29     0.0000008263700659
 30    -0.0000001178824122
 31    -0.0000020207305822
 32    -0.0006828278325931
 33     0.0001079345981267
 34    -0.0000015453190916
 35    -0.0000047279893480
 36    -0.0018626937641929
 37    -0.1652251795297197
 38     0.0000196569798940
 39     0.0000412992672928
 40     0.1788449696063879
 41     0.1688186935853780
 42    -0.0000106356594055
 43    -0.0000045565798972
 44    -0.0957091763221171
 45     0.1775321891286392
 46     0.0000408029402163
 47    -0.0000513083019420
 48     0.1465920076161671
 49     0.1562720527148013
 50    -0.0000182298375414
 51    -0.0000210119361076
 52     0.0539044772099165
 53    -0.1386395613637929
 54    -0.0019337902392837
 55    -0.0389451016530416
 56    -0.2107232774770425
 57     0.1344081746197419
 58     0.0001034044234255
 59     0.1816363645915899
 60    -0.1797217791707762
 61    -0.1386289568007570
 62     0.0018611824824464
 63     0.0390560200200337
 64    -0.2107008013476763
 65     0.1344606891380202
 66    -0.0001719482886092
 67    -0.1817783525533328
 68    -0.1796407496167457
 69     0.0812240079675038
 70    -0.0365547238652341
 71     0.0451883699600610
 72    -0.1320255993972378
 73     0.1238331591561892
 74     0.0885380818716276
 75     0.1177990286119662
 76     0.1732002348464161
 77     0.0811559158412408
 78     0.0365362327869896
 79    -0.0451304955195249
 80    -0.1320978715111647
 81     0.1237830771443541
 82    -0.0885570264863348
 83    -0.1177608914890673
 84     0.1732622040202523
 85    -0.0863916699225212
 86     0.0940191939719220
 87    -0.1231031360569377
 88    -0.1010928064667151
 89    -0.1312633800158353
 90    -0.0281099325490534
 91    -0.0379033624868077
 92     0.1901569635406340
 93    -0.0864490306255703
 94    -0.0939963684426735
 95     0.1231237713582987
 96    -0.1010059392971170
 97    -0.1313449191900016
 98     0.0280944064216999
 99     0.0379680482228537
 100     0.1900932036059208
 101    -0.1314563027369058
 102     0.0000350189072682
 103    -0.0000188869697415
 104    -0.0803561630842868
 105    -0.1203766346616821
 106    -0.0000148913338127
 107    -0.0000580891793926
 108    -0.1110045281560747
 109    -0.0038200482223314
 110    -0.0000056658897405
 111     0.0000095600481220
 112    -0.0095250293719814
 113     0.1371513171536056
 114     0.0000024883041695
 115     0.0000110364117270
 116    -0.0385178700246048
 117    -0.0039581576787672
 118     0.0000029715130461
 119    -0.0000020279301120
 120    -0.0055095078567691
 121    -0.0247755315485600
 122    -0.0000144412058947
 123    -0.0000240386867984
 124     0.0750621637545637
 125     0.0002638366023767
 126     0.0016956601623410
 127    -0.1003169329875515
 128    -0.0536740885311483
 129     0.0003475083775159
 130     0.0017271508667985
 131    -0.1004515676615934
 132    -0.0537278705185559
 133    -0.0203511716618724
 134    -0.0062417362854820
 135    -0.0737019610889676
 136    -0.0464808549618519
 137    -0.0202962122549832
 138    -0.0062117499939784
 139    -0.0736741777647525
 140    -0.0464748555622993
 141     0.0943614670241500
 142     0.0402284492881071
 143     0.0060447688172974
 144     0.0117306400632551
 145     0.0943779134828996
 146     0.0402361809996919
 147     0.0061060488197598
 148     0.0117553178394761
 149     0.0000772624744238
 150    -0.0000420274400748
 151    -0.0000009541892752
 152     0.0000006730885505
 153    -0.0162687925902404
 154    -0.0316505130322233
 155     0.0000053937056829
 156     0.0001839895937958
 157     0.0054821235064981
 158    -0.0006828252326800
 159     0.0000456711124764
 160     0.0011955340995306
 161    -0.0002361793776082
 162     0.0018434643330313
 163     0.0026641913098466
 164    -0.0032736699211822
 165     0.0021890598459831
 166    -0.0072820720578361
 167     0.0013522913211767
 168    -0.0001433314327976
 169     0.0000001002333674
 170     0.0000000796291555
 171     0.0019342181524972
 172     0.0016998830017572
 173    -0.0000005697595260
 174    -0.0030684894219813
 175    -0.0071550820800807
 176    -0.0006831645798126
 177     0.0000455730607051
 178    -0.0011959198045263
 179     0.0002361697987321
 180     0.0018440362526381
 181     0.0026661882139653
 182     0.0032725510093280
 183     0.0021891015554665
 184    -0.0072873425706255
 Sym= 167A
 Ene= 0.809659
 Spin= Alpha
 Occup= 2.000000
  1     0.0001031397910357
  2    -0.0005343381743272
  3     0.0000150520341848
  4     0.0003388363063117
  5     0.0000473751377198
  6     0.0004458415354243
  7    -0.0009899230499915
  8     0.0019900875666720
  9     0.0005688581535193
 10    -0.0001376874937720
 11     0.0003018501109661
 12    -0.0000550349372540
 13     0.0002576743133603
 14     0.0005748998746313
 15    -0.0021296224063271
 16    -0.0009339891667279
 17     0.0033627111100627
 18     0.0014900159303403
 19    -0.0000758483165341
 20    -0.0001230878282586
 21     0.0001841983634151
 22    -0.0003992225857292
 23    -0.0006209647741592
 24     0.0017450180099115
 25    -0.0023372227317716
 26     0.0023052123804379
 27    -0.0020355664460838
 28    -0.0012738237358057
 29    -0.0000294640243549
 30     0.0008207015452726
 31    -0.0000434183613346
 32     0.0000059660140578
 33    -0.0000038356592824
 34     0.0027449817573720
 35    -0.0029333185347048
 36     0.0000313214181132
 37    -0.0000651460116866
 38     0.0153622491655047
 39    -0.1191934080717105
 40     0.0000546817636763
 41     0.0000809532322867
 42     0.0135031122632971
 43    -0.0830608433461825
 44    -0.0000369549178717
 45     0.0000697162083924
 46    -0.0864141837849646
 47     0.1430418535542555
 48     0.0000720175208896
 49    -0.0000276255898665
 50    -0.0693110665413477
 51    -0.0891001354237515
 52     0.0000064340665644
 53     0.1017002485302396
 54    -0.0033648684850733
 55    -0.2053442893260529
 56     0.1808627836573863
 57     0.0510712802554297
 58    -0.0053306621841253
 59     0.1987312114724202
 60     0.2895378901408062
 61    -0.1017858031495887
 62    -0.0034284607225486
 63    -0.2053014286056785
 64    -0.1809684700028097
 65    -0.0510025055928083
 66    -0.0054381324536797
 67     0.1985588684539185
 68    -0.2896569317050527
 69    -0.1414611391773679
 70    -0.0166359903134230
 71     0.0168566526413313
 72    -0.0278575980345284
 73     0.0528507198908965
 74    -0.0600109861737896
 75    -0.0778893206473224
 76     0.0055945624956810
 77     0.1415204936895873
 78    -0.0165941986415325
 79     0.0168035498394271
 80     0.0277821422479603
 81    -0.0529141362906747
 82    -0.0599679689777593
 83    -0.0778488685274475
 84    -0.0056516361922324
 85    -0.1116325850713797
 86    -0.0050861229957964
 87     0.0084251046784117
 88     0.1529454972722686
 89     0.0751559338170334
 90     0.0611718336243619
 91     0.0794430427378234
 92     0.1005927033433996
 93     0.1115833854749151
 94    -0.0051510437423212
 95     0.0085833711357622
 96    -0.1530124167533481
 97    -0.0751045167975045
 98     0.0611535608617148
 99     0.0793773632794133
 100    -0.1006881147764948
 101    -0.0000556502334787
 102    -0.1259177474150908
 103     0.1653303523626563
 104     0.0000034124823489
 105     0.0000333663377802
 106    -0.0308867866517519
 107    -0.0402586921645713
 108     0.0000096896596408
 109    -0.0000022490483625
 110     0.0228155374371974
 111    -0.0298860971679407
 112    -0.0000007640539962
 113    -0.0000182586936657
 114     0.0033637422435252
 115     0.0043112209227814
 116     0.0000040555351850
 117    -0.0000157020035136
 118    -0.0092203121998877
 119     0.0119664007097254
 120     0.0000093249866474
 121     0.0000079517652951
 122    -0.0016695086423999
 123    -0.0021237832639728
 124    -0.0000090142941703
 125     0.1589795809670097
 126     0.0553696030195011
 127    -0.2555558555339152
 128    -0.0917401577885231
 129    -0.1589557044381653
 130    -0.0553647687583335
 131     0.2554672664032985
 132     0.0917108341535143
 133     0.0472360434350147
 134     0.0323541018020328
 135     0.0478979978350313
 136    -0.0004318447904837
 137    -0.0472696139028182
 138    -0.0323602501752101
 139    -0.0478554859014577
 140     0.0004394836246020
 141     0.0925158195530233
 142     0.0373943839667616
 143    -0.1342414139951666
 144    -0.0523362107889297
 145    -0.0924513899862646
 146    -0.0373676484556058
 147     0.1342220200927171
 148     0.0523266743650266
 149    -0.0002272421024727
 150     0.0000091519790123
 151    -0.0001393551567602
 152    -0.0000090383408897
 153     0.0000008477521591
 154     0.0000048363241142
 155     0.0006097846579076
 156     0.0006271246285421
 157     0.0000062097237133
 158     0.0000228569189744
 159     0.0001292225392891
 160    -0.0000052906508741
 161     0.0000814841110897
 162    -0.0000122382907261
 163    -0.0001018566206672
 164    -0.0002400960530215
 165    -0.0004709909158655
 166     0.0001378394595914
 167    -0.0000325576260234
 168    -0.0000719256896271
 169     0.0000118308690896
 170     0.0000629821317991
 171    -0.0001350699304086
 172     0.0005293824188868
 173    -0.0002232225456012
 174    -0.0008092785732007
 175     0.0003349976295858
 176    -0.0000189516893582
 177     0.0000292229980150
 178    -0.0000433001661575
 179    -0.0000955158434115
 180     0.0001463854010335
 181    -0.0004428569114594
 182    -0.0005711121113762
 183    -0.0005534238870349
 184    -0.0004650364850437
 Sym= 168A
 Ene= 0.816535
 Spin= Alpha
 Occup= 2.000000
  1    -0.0000308868374835
  2    -0.0000025274193943
  3    -0.0000539718575481
  4    -0.0000114642049112
  5    -0.0000683243129703
  6    -0.0001723958183520
  7    -0.0001315661033878
  8    -0.0000888823906928
  9    -0.0002844841085100
 10     0.0000611747900588
 11     0.0000074277557326
 12     0.0000000269459815
 13    -0.0000000240220360
 14    -0.0000723521099593
 15    -0.0001305445089038
 16     0.0000001361711694
 17     0.0001195993028105
 18    -0.0002792531434150
 19    -0.0000308585260911
 20    -0.0000025655308332
 21     0.0000539766686691
 22     0.0000114678552489
 23    -0.0000682518745232
 24    -0.0001724212024261
 25     0.0001318861205356
 26    -0.0000888550196001
 27    -0.0002843533257554
 28     0.0000036620385950
 29     0.0000016223474109
 30    -0.0000002157572480
 31    -0.0000004476778591
 32     0.0003073634042475
 33     0.0009214295821408
 34    -0.0000004833902519
 35    -0.0000071770351813
 36    -0.0002734811225182
 37    -0.1905549210989700
 38    -0.0000169106261774
 39     0.0000482924047825
 40    -0.0442021364146120
 41     0.2156770574669456
 42     0.0000059203087246
 43     0.0000364559851467
 44     0.1301471448560756
 45     0.0368258619595934
 46     0.0000278790280058
 47    -0.0000423100259274
 48     0.0315581252582425
 49    -0.2358992106751402
 50     0.0000237179885819
 51     0.0000278885707409
 52     0.1268989828796185
 53    -0.1302899710147066
 54    -0.0015798559374577
 55    -0.1805891100320829
 56    -0.1708003086314092
 57     0.1314241595559757
 58    -0.0028843771628960
 59     0.1041442426259445
 60    -0.1928640147965874
 61    -0.1302248602362535
 62     0.0015139917948515
 63     0.1806604523879889
 64    -0.1707849621638758
 65     0.1314696113174602
 66     0.0028222903743074
 67    -0.1042136400508287
 68    -0.1927563755421702
 69     0.0224713712971349
 70    -0.0130235474844986
 71     0.0133055676250773
 72    -0.0277403251855137
 73    -0.1609431311349792
 74    -0.0768448690936070
 75    -0.0962434408719481
 76    -0.2350700414491467
 77     0.0223918080044022
 78     0.0130266423225797
 79    -0.0133063500918965
 80    -0.0277572311872525
 81    -0.1609136190900022
 82     0.0768934497373566
 83     0.0962315967660285
 84    -0.2350685647352821
 85    -0.0183913118507449
 86     0.0262861874975110
 87    -0.0335503697891745
 88    -0.0203367341035158
 89     0.1648703208509308
 90     0.1163813559893803
 91     0.1522640440737477
 92    -0.2110636769966840
 93    -0.0184444087746979
 94    -0.0262802701275817
 95     0.0335541852981717
 96    -0.0202416788355661
 97     0.1649375218751925
 98    -0.1163907488762528
 99    -0.1523738659236112
 100    -0.2109412478167264
 101    -0.0331655565355173
 102     0.0000341076208738
 103    -0.0000366110650454
 104    -0.0261285485701792
 105     0.2013145522399913
 106     0.0000254667399436
 107     0.0000223726311841
 108    -0.0349096446253028
 109    -0.0054763435093018
 110    -0.0000054622724935
 111     0.0000084880819700
 112    -0.0037850438830198
 113    -0.0610262128760821
 114     0.0000005346116910
 115    -0.0000094118872585
 116     0.0060622206322677
 117    -0.0002655893001413
 118     0.0000022082843850
 119    -0.0000019769531088
 120     0.0008539562273047
 121     0.0172850879996108
 122     0.0000092041093852
 123     0.0000115456046617
 124    -0.0421843887462852
 125     0.1043247778884369
 126     0.0418801442270927
 127    -0.0504657436720523
 128    -0.0138446489570116
 129     0.1043612880411926
 130     0.0418936075274806
 131    -0.0505586757248235
 132    -0.0138755269095529
 133    -0.0160391380051433
 134     0.0051197359423368
 135     0.0570355645962325
 136     0.0197130230604888
 137    -0.0160091420868827
 138     0.0051349859598462
 139     0.0570714178303815
 140     0.0197195276297073
 141     0.0272608295912078
 142     0.0101458355056952
 143    -0.1073886114002616
 144    -0.0495602192280069
 145     0.0273056409785508
 146     0.0101640302914308
 147    -0.1074887702260619
 148    -0.0495984319500559
 149    -0.0000377193773833
 150     0.0000202953923916
 151     0.0000005517152264
 152    -0.0000024762940388
 153     0.0083091964875497
 154     0.0142093970532661
 155    -0.0000035529407384
 156    -0.0000923224128291
 157    -0.0048028380916332
 158     0.0002494366331533
 159    -0.0000091415472739
 160    -0.0004377305099477
 161     0.0000906471596845
 162    -0.0007410797140561
 163    -0.0007195180942255
 164     0.0012807823205683
 165    -0.0008742115343540
 166     0.0028532655276179
 167    -0.0004914223608890
 168     0.0000431229974262
 169    -0.0000000889865317
 170    -0.0000000506884036
 171    -0.0007823372572688
 172    -0.0002694245872553
 173     0.0000002875904480
 174     0.0011341287272827
 175     0.0027832474513252
 176     0.0002496777392119
 177    -0.0000090789963507
 178     0.0004379691090348
 179    -0.0000906464700722
 180    -0.0007414054781352
 181    -0.0007211661805004
 182    -0.0012801934573891
 183    -0.0008742397403231
 184     0.0028569334259087
 Sym= 169A
 Ene= 0.819066
 Spin= Alpha
 Occup= 2.000000
  1     0.0000208059254248
  2    -0.0001118785764173
  3     0.0000033434085322
  4     0.0000718124052556
  5     0.0000087093749955
  6     0.0000996186684186
  7    -0.0001968084652065
  8     0.0004154565673434
  9     0.0001164220465105
 10    -0.0000258251871798
 11     0.0000642609311247
 12    -0.0000111054132424
 13     0.0000532871522741
 14     0.0001181174558636
 15    -0.0004639460198844
 16    -0.0001904406162003
 17     0.0007138212211511
 18     0.0002862655429695
 19    -0.0000144960483253
 20    -0.0000269753624659
 21     0.0000354536071900
 22    -0.0000847091132146
 23    -0.0001264779977274
 24     0.0003778625562713
 25    -0.0004894935572900
 26     0.0004849128180122
 27    -0.0003975172752847
 28    -0.0002680747491946
 29    -0.0000084888299887
 30     0.0001716102903794
 31    -0.0000078932950979
 32     0.0000013814483188
 33    -0.0000008746497922
 34     0.0005480295734505
 35    -0.0005753608967501
 36     0.0000073019781877
 37     0.0000024705798782
 38     0.0028001734126951
 39    -0.0312746376540453
 40     0.0000199898760468
 41     0.0000000068000539
 42     0.0007479606882033
 43    -0.0216763243895447
 44    -0.0000228625606149
 45     0.0000138191691707
 46    -0.0138906803361382
 47     0.0255115622053911
 48     0.0000135421583555
 49     0.0000146645005174
 50    -0.0569654863610962
 51    -0.0729186320207838
 52    -0.0000095071372009
 53     0.0231170709622937
 54    -0.0010057590864688
 55    -0.0451591499079709
 56     0.0318440124651754
 57     0.0139773206990350
 58     0.0000877889921255
 59     0.0471500965125673
 60     0.0620166114081901
 61    -0.0231178324646848
 62    -0.0010173327730186
 63    -0.0451847444037296
 64    -0.0318438741436739
 65    -0.0139799899528528
 66     0.0000652443800287
 67     0.0471256252666566
 68    -0.0620160500005614
 69    -0.0282463480765162
 70    -0.0023775471718556
 71     0.0019078229075919
 72    -0.0001645554647117
 73     0.1188926314978880
 74     0.1670449544668569
 75     0.2109683618051361
 76    -0.2887390440270749
 77     0.0282541025297111
 78    -0.0023710307884076
 79     0.0019005184279085
 80     0.0001527022705691
 81    -0.1189035232961521
 82     0.1670241921009178
 83     0.2110595327716915
 84     0.2887244316958829
 85    -0.0200582400635232
 86    -0.0023776114771156
 87     0.0035208137499759
 88     0.0341838318786228
 89     0.1109034917810037
 90    -0.1777608331607756
 91    -0.2312634657181323
 92    -0.1247488426042124
 93     0.0200514532327751
 94    -0.0023884323517779
 95     0.0035515806210912
 96    -0.0341926407269454
 97    -0.1109090683416138
 98    -0.1777358383721141
 99    -0.2311929723674153
 100     0.1248021247553186
 101    -0.0000094369975755
 102    -0.0268334767142173
 103     0.0352211339073848
 104     0.0000013189775389
 105    -0.0000104102329885
 106    -0.1372112552247486
 107    -0.1824895975065337
 108     0.0000546587257870
 109    -0.0000011465955320
 110     0.0047515646926649
 111    -0.0062210620486981
 112    -0.0000001474695850
 113    -0.0000205477580983
 114     0.0363825720283617
 115     0.0482894156928661
 116     0.0000105381079107
 117    -0.0000033524108181
 118    -0.0019009581116330
 119     0.0024651170327784
 120     0.0000025612089931
 121     0.0000266625010064
 122    -0.0138887875814580
 123    -0.0182685376790109
 124     0.0000047804487496
 125     0.0293307901269848
 126     0.0113471710348294
 127    -0.0548906641267282
 128    -0.0409231357333125
 129    -0.0293464911606412
 130    -0.0113544547597445
 131     0.0548738676566111
 132     0.0409217809656606
 133     0.0087019440770897
 134     0.0059382759651341
 135    -0.3261356794552704
 136    -0.1273942567854538
 137    -0.0087060555284654
 138    -0.0059404081622109
 139     0.3261665347431821
 140     0.1274045702206768
 141     0.0173525149963933
 142     0.0068976896613456
 143     0.1923141004109740
 144     0.0671009001945787
 145    -0.0173416673412454
 146    -0.0068930836771004
 147    -0.1922816604249237
 148    -0.0670897013654335
 149    -0.0019856787533665
 150     0.0000564532162132
 151    -0.0012682997133470
 152    -0.0000562912528285
 153    -0.0000065647212248
 154     0.0000124451478004
 155     0.0038471149915428
 156     0.0041159926855185
 157     0.0000502097932772
 158     0.0001465306867884
 159     0.0007718955022447
 160    -0.0000196757312962
 161     0.0004984731182870
 162    -0.0000552995809256
 163    -0.0007082905480154
 164    -0.0013360059912778
 165    -0.0028926196111200
 166     0.0007899342376113
 167    -0.0001797317091281
 168    -0.0004465287207173
 169     0.0000785267578161
 170     0.0003642731351961
 171    -0.0008240267464579
 172     0.0031881582248854
 173    -0.0013069832305400
 174    -0.0049429067637651
 175     0.0020145210555663
 176    -0.0000975591491593
 177     0.0001902566512274
 178    -0.0002450688851787
 179    -0.0005876853846479
 180     0.0008757403738333
 181    -0.0025758197153963
 182    -0.0033568007186546
 183    -0.0033588011931831
 184    -0.0027641959826583
 Sym= 170A
 Ene= 0.838252
 Spin= Alpha
 Occup= 2.000000
  1    -0.0001051869678874
  2     0.0006149197138813
  3    -0.0000213851709738
  4    -0.0004063373753277
  5    -0.0000328298948042
  6    -0.0006332814902700
  7     0.0009495491075313
  8    -0.0022794270218981
  9    -0.0006129827548526
 10     0.0001081619891029
 11    -0.0003662965840556
 12     0.0000559679633256
 13    -0.0002836319788459
 14    -0.0006248781012302
 15     0.0027675101819943
 16     0.0009845011376096
 17    -0.0040469901495668
 18    -0.0012821236926753
 19     0.0000644574846254
 20     0.0001643221929917
 21    -0.0001598563270855
 22     0.0004792502370313
 23     0.0006545588811737
 24    -0.0022179309235306
 25     0.0026863096230792
 26    -0.0026945651724574
 27     0.0018617710884777
 28     0.0014814366589756
 29     0.0000734159568363
 30    -0.0009309750211217
 31     0.0000305635118086
 32    -0.0000085206545583
 33     0.0000072787316151
 34    -0.0027049162900357
 35     0.0027112726194211
 36    -0.0000493543535071
 37     0.0000267555500952
 38    -0.0056747251335422
 39     0.2825123540592169
 40    -0.0000350746414791
 41    -0.0000258065553727
 42     0.0246451074543081
 43     0.1849534355123599
 44     0.0000194932075537
 45    -0.0000377440646450
 46     0.0143006467134965
 47    -0.0584002993932984
 48    -0.0000301648563370
 49    -0.0000183462912144
 50    -0.1384874414823689
 51    -0.2118378428137697
 52     0.0000232260978882
 53    -0.1283253861075938
 54     0.0001695247214210
 55     0.0261966054565752
 56     0.2163097527801183
 57    -0.1826010384201338
 58    -0.0038204599312303
 59     0.0241769258239501
 60    -0.0017084619224030
 61     0.1283542269575361
 62     0.0000846026774275
 63     0.0261750276685985
 64    -0.2162742397531234
 65     0.1825837510901284
 66    -0.0038198895587333
 67     0.0242423724346610
 68     0.0017397106797133
 69     0.1221660163979910
 70    -0.0000156419098379
 71     0.0077853538258165
 72    -0.0779203496462736
 73     0.1946124889956055
 74    -0.0426028637729194
 75    -0.0520572378533416
 76    -0.0475430516485875
 77    -0.1221769960319167
 78    -0.0000328863768349
 79     0.0077789355184394
 80     0.0779452418315546
 81    -0.1946316491603308
 82    -0.0425849053776839
 83    -0.0520255403237697
 84     0.0475366845411595
 85     0.0716060407390473
 86     0.0269937847880317
 87    -0.0376852413713630
 88    -0.2132276328738874
 89     0.1649875389860676
 90     0.0154556337159491
 91     0.0187988784322513
 92     0.2072432426193056
 93    -0.0716007849232276
 94     0.0270203698544750
 95    -0.0378242605797176
 96     0.2132303991807623
 97    -0.1649788160893398
 98     0.0154721464352900
 99     0.0187210151679896
 100    -0.2072727425396919
 101     0.0000288142461007
 102     0.1518094701635614
 103    -0.1993394144432135
 104    -0.0000197924161624
 105     0.0000167458293977
 106    -0.1578223844598871
 107    -0.2075430038283253
 108     0.0000241512256610
 109     0.0000089878158180
 110    -0.0255656655531520
 111     0.0334825972737553
 112    -0.0000008952439951
 113    -0.0000059975157928
 114     0.0275645994594968
 115     0.0361532428684857
 116     0.0000043465904461
 117     0.0000203773353587
 118     0.0100326968273221
 119    -0.0130019652108612
 120    -0.0000184067657924
 121     0.0000274898543940
 122    -0.0111102326968017
 123    -0.0144105679478464
 124     0.0000106921719033
 125     0.1083587787302238
 126     0.0417622660017110
 127     0.0538877431676634
 128     0.0249313413232846
 129    -0.1083610866574015
 130    -0.0417614906804076
 131    -0.0538521947244564
 132    -0.0249143187761595
 133    -0.0205962157456133
 134    -0.0085312618609398
 135    -0.0488423125285048
 136    -0.0222926726495833
 137     0.0206095443724223
 138     0.0085372034305926
 139     0.0488601698337300
 140     0.0223047173951289
 141    -0.0733741619489455
 142    -0.0280095256092648
 143    -0.1533492063441673
 144    -0.0628828556871968
 145     0.0733454922693092
 146     0.0279980467361067
 147     0.1533474499865131
 148     0.0628798573737570
 149    -0.0016480733872705
 150     0.0000868377297117
 151    -0.0010247658460025
 152    -0.0000341163594865
 153    -0.0000078281067245
 154     0.0000109830017967
 155     0.0030813661494352
 156     0.0030723411819637
 157     0.0000546095662525
 158     0.0001196480994683
 159     0.0007108179021474
 160    -0.0000258380780537
 161     0.0004695712637183
 162    -0.0000378599240533
 163    -0.0007272655453456
 164    -0.0010955495462296
 165    -0.0026265569928459
 166     0.0007053556087978
 167    -0.0001243942563375
 168    -0.0004227027795131
 169     0.0000633295066910
 170     0.0003280983638135
 171    -0.0007192097876380
 172     0.0032109098927570
 173    -0.0011336463692740
 174    -0.0046746710959060
 175     0.0014607649766943
 176    -0.0000749394713657
 177     0.0001899184043045
 178    -0.0001837724564797
 179    -0.0005532574811607
 180     0.0007532358582846
 181    -0.0025800906428378
 182    -0.0031072602406830
 183    -0.0031112498865164
 184    -0.0021272426721154
 Sym= 171A
 Ene= 0.879661
 Spin= Alpha
 Occup= 2.000000
  1    -0.0001147644973710
  2     0.0008539079165858
  3    -0.0000467913760474
  4    -0.0006162927646261
  5     0.0000128887169940
  6    -0.0012759324546021
  7     0.0007833532794932
  8    -0.0032295668118985
  9    -0.0007981887615273
 10     0.0000434405941618
 11    -0.0005589160934377
 12     0.0000587739967171
 13    -0.0003504150827831
 14    -0.0007976950174150
 15     0.0046543476575686
 16     0.0011342028739548
 17    -0.0061235842972735
 18    -0.0008293858101067
 19     0.0000456484005901
 20     0.0002997675998580
 21    -0.0001128871464002
 22     0.0007164455806826
 23     0.0007748897400603
 24    -0.0035314347459660
 25     0.0036710660046128
 26    -0.0038635438774006
 27     0.0015584963593206
 28     0.0019618202678524
 29     0.0001930590663391
 30    -0.0011330653204019
 31     0.0000070890951769
 32    -0.0000130658731372
 33     0.0000242241651595
 34    -0.0027236861212964
 35     0.0021871486957396
 36    -0.0001034368632688
 37     0.0000022035748801
 38     0.0206456589975597
 39     0.0492966209410464
 40     0.0000103702983099
 41    -0.0000045076640834
 42    -0.0038208487644311
 43    -0.2772318877881671
 44    -0.0000036244623064
 45     0.0000015082622950
 46    -0.1529427123910308
 47     0.1951489266633810
 48     0.0000475033887040
 49     0.0000196106965280
 50     0.0020469012784153
 51     0.0411247799223386
 52    -0.0000076302685555
 53     0.0925642540861529
 54    -0.0043064820343790
 55     0.0524431079742875
 56     0.1383358301486585
 57     0.0443704915633397
 58     0.0010461255375945
 59    -0.0870276403685203
 60     0.2349333044984308
 61    -0.0925698492933242
 62    -0.0043594223606337
 63     0.0524183144218689
 64    -0.1383399146068486
 65    -0.0443756531042799
 66     0.0009596908400949
 67    -0.0870396968775514
 68    -0.2349333414786919
 69     0.0332418246594305
 70    -0.0779948869509521
 71     0.1047461848559356
 72    -0.2422131668925256
 73    -0.1136910338063736
 74    -0.0043904929390621
 75    -0.0139748982860213
 76    -0.0897802305195913
 77    -0.0332401552356704
 78    -0.0779855351244355
 79     0.1046642710637057
 80     0.2422576595439443
 81     0.1137017475263629
 82    -0.0044116477926510
 83    -0.0139685784480417
 84     0.0898035729249055
 85     0.0061370316232910
 86     0.0836337339977906
 87    -0.1112669884777442
 88    -0.2704999683398342
 89    -0.0625795285950920
 90     0.0301263830771078
 91     0.0420180658592085
 92    -0.2136792260035354
 93    -0.0061432208630992
 94     0.0836130508633691
 95    -0.1113765323748062
 96     0.2704640810306799
 97     0.0625698827647206
 98     0.0301122280761552
 99     0.0421031866604445
 100     0.2136894274920244
 101     0.0000052112925790
 102     0.1894505278591500
 103    -0.2496947787984800
 104    -0.0000573647680122
 105    -0.0000144975051840
 106     0.1493667155505961
 107     0.1961126194191554
 108    -0.0000165147278001
 109     0.0000063253148230
 110    -0.0307921087725188
 111     0.0405270656881631
 112    -0.0000084615827377
 113    -0.0000040226840489
 114    -0.0244869958709400
 115    -0.0320572356110112
 116    -0.0000041377992561
 117     0.0000412343551762
 118     0.0115300430315908
 119    -0.0149479872613833
 120    -0.0000302442862339
 121    -0.0000360550528767
 122     0.0093860559517011
 123     0.0120972012748112
 124    -0.0000208884974118
 125    -0.0141981119507628
 126    -0.0137298009455272
 127    -0.0455284872872889
 128    -0.0139126762287448
 129     0.0141901570148336
 130     0.0137286184097844
 131     0.0455330231103926
 132     0.0139126028057229
 133    -0.0047144322222712
 134    -0.0083793523214543
 135     0.0164311128912636
 136     0.0113760701830049
 137     0.0047181286898923
 138     0.0083800355818588
 139    -0.0164410650327462
 140    -0.0113799159612327
 141    -0.0139492972537675
 142    -0.0011121175724930
 143     0.0669731571159123
 144     0.0247751480882219
 145     0.0139650492263894
 146     0.0011168039264577
 147    -0.0669639704327277
 148    -0.0247690885496947
 149     0.0015966288369002
 150    -0.0001617453736202
 151     0.0009201390264198
 152     0.0000052522005181
 153     0.0000103020632890
 154    -0.0000190259999089
 155    -0.0022569289051305
 156    -0.0017855216206684
 157    -0.0000825170813114
 158    -0.0000946523262923
 159    -0.0007114698069852
 160     0.0000398175517108
 161    -0.0005116467749572
 162    -0.0000084787772859
 163     0.0010483659554272
 164     0.0006656805969910
 165     0.0026764417685015
 166    -0.0006677610031178
 167     0.0000356774688975
 168     0.0004640534194227
 169    -0.0000484191622780
 170    -0.0002936938883448
 171     0.0006610193264663
 172    -0.0038728041353595
 173     0.0009476424323286
 174     0.0050857207481632
 175    -0.0006786708421966
 176     0.0000389001749969
 177    -0.0002471943041262
 178     0.0000941404025002
 179     0.0005951963407005
 180    -0.0006449209817621
 181     0.0029494698711156
 182     0.0030657377611780
 183     0.0032101371892151
 184     0.0012918163170140
 Sym= 172A
 Ene= 0.916720
 Spin= Alpha
 Occup= 2.000000
  1     0.0000630969099915
  2    -0.0006392289762270
  3     0.0000573810724946
  4     0.0005236308303984
  5    -0.0000690809925686
  6     0.0014527208304902
  7    -0.0000086575931780
  8     0.0025919489050241
  9     0.0006164195438791
 10     0.0000489113546648
 11     0.0004711099700983
 12    -0.0000285291144081
 13     0.0002087183812329
 14     0.0005585990064806
 15    -0.0042631240724325
 16    -0.0006307949693073
 17     0.0051375195766257
 18    -0.0001201997887059
 19    -0.0000064340741210
 20    -0.0003100975900895
 21     0.0000057239167634
 22    -0.0005880475724382
 23    -0.0004766393397642
 24     0.0029617718422233
 25    -0.0026288049048557
 26     0.0030333478046067
 27    -0.0004211755256377
 28    -0.0013312184306580
 29    -0.0002217062212947
 30     0.0006390716727803
 31     0.0000117039668108
 32     0.0000115654691968
 33    -0.0000316589318768
 34     0.0012746459102433
 35    -0.0003320067633487
 36     0.0001129287073787
 37     0.0000284267586878
 38    -0.0251738832104781
 39     0.3247266875496045
 40    -0.0000047611759443
 41    -0.0000256556336998
 42     0.0172904377408088
 43    -0.0527593774688380
 44     0.0000232422790808
 45    -0.0000229049108364
 46     0.1694762673867260
 47    -0.2654375600130408
 48    -0.0000550068218487
 49     0.0000019346339078
 50    -0.1288020575262466
 51    -0.1618182595645250
 52     0.0000219999987561
 53    -0.0699091274769276
 54     0.0062313144250066
 55     0.1197453040489584
 56     0.2121070729990273
 57    -0.0807564288967217
 58    -0.0043687969685150
 59    -0.0707840446295916
 60     0.1072380072266950
 61     0.0699129199900601
 62     0.0061457593348678
 63     0.1196907653499693
 64    -0.2121198817687393
 65     0.0807607251344055
 66    -0.0044075778503040
 67    -0.0707229317354176
 68    -0.1072375942382287
 69     0.0446367788817118
 70     0.0879841726483458
 71    -0.1069811407373324
 72     0.2033519151083765
 73    -0.0345711407061752
 74    -0.0658698366667151
 75    -0.0891222148699413
 76    -0.2112262316352684
 77    -0.0446356931192918
 78     0.0879536560073127
 79    -0.1068907290616687
 80    -0.2033988676990288
 81     0.0345778856399654
 82    -0.0658869295720684
 83    -0.0890760298261125
 84     0.2112585616482766
 85     0.0264470628827815
 86    -0.0678122346299250
 87     0.0878359939347247
 88     0.1545125348595534
 89    -0.0052334485988877
 90     0.0718011485614568
 91     0.0957187221035584
 92    -0.2398216438960021
 93    -0.0264463659194568
 94    -0.0677774278632284
 95     0.0878715598932180
 96    -0.1544874187214722
 97     0.0052276587258779
 98     0.0717706059784570
 99     0.0957972472187613
 100     0.2398159499169016
 101     0.0000087781834106
 102    -0.1075215875388435
 103     0.1427802772243159
 104     0.0000464327597713
 105    -0.0000061298428063
 106     0.1651744091973353
 107     0.2176851331486401
 108    -0.0000232214048238
 109    -0.0000063450050858
 110     0.0170019570616496
 111    -0.0225795086157091
 112     0.0000099670322167
 113    -0.0000165900107406
 114    -0.0262401719958846
 115    -0.0345062016264024
 116    -0.0000097153822144
 117    -0.0000433866526568
 118    -0.0061453400735842
 119     0.0079453557697837
 120     0.0000298068826347
 121    -0.0000688758653488
 122     0.0096595160672137
 123     0.0123543257716836
 124    -0.0000459348364642
 125     0.0228747836390641
 126     0.0108623027682794
 127     0.0313927716296372
 128     0.0183453709999525
 129    -0.0229034175919685
 130    -0.0108715786020028
 131    -0.0313530996882702
 132    -0.0183323388105161
 133    -0.0013904490807928
 134    -0.0005932673951149
 135     0.0040635948855885
 136     0.0084762329555919
 137     0.0014073282187645
 138     0.0005972039757182
 139    -0.0040666814752335
 140    -0.0084744688521313
 141    -0.0202784335315849
 142    -0.0110515860840363
 143     0.0145370739725518
 144     0.0017857464065994
 145     0.0202478134758323
 146     0.0110422893172750
 147    -0.0145396795777866
 148    -0.0017828012998956
 149     0.0020870884700168
 150    -0.0003531938277670
 151     0.0010045623244957
 152    -0.0000195820716636
 153     0.0000184983326358
 154    -0.0000461144302610
 155    -0.0020308960487861
 156    -0.0005012497104599
 157    -0.0001729200379547
 158    -0.0000996703331353
 159    -0.0010177295820746
 160     0.0000916837177050
 161    -0.0008291704205030
 162    -0.0001050872969356
 163     0.0022775751947120
 164     0.0000484505309064
 165     0.0040987677697785
 166    -0.0009845421198693
 167    -0.0000781514540700
 168     0.0007466307463606
 169    -0.0000452307541235
 170    -0.0003363543851964
 171     0.0008839076617030
 172    -0.0067610436231434
 173     0.0010137334928497
 174     0.0081414832651933
 175     0.0001985158688855
 176     0.0000115457732176
 177    -0.0004873655668619
 178     0.0000100504022026
 179     0.0009326264881699
 180    -0.0007598982529537
 181     0.0047189359438485
 182     0.0042003363956679
 183     0.0048119173922567
 184     0.0006733020450838
 Sym= 173A
 Ene= 0.951350
 Spin= Alpha
 Occup= 2.000000
  1    -0.0000273200856646
  2     0.0004207056422549
  3    -0.0000654396801180
  4    -0.0004220203379959
  5     0.0001105266987790
  6    -0.0015968702164248
  7    -0.0006623722163824
  8    -0.0020031645832082
  9    -0.0004968565927930
 10    -0.0000981970107490
 11    -0.0003704466194315
 12     0.0000072874042301
 13    -0.0000698292386966
 14    -0.0003571002627986
 15     0.0036133369769383
 16     0.0001967890169043
 17    -0.0040308469423401
 18     0.0006848868129569
 19    -0.0000121625716335
 20     0.0003107902150136
 21     0.0000538200454817
 22     0.0004449261720064
 23     0.0002324165357364
 24    -0.0021552043187013
 25     0.0015407998440064
 26    -0.0021706731249538
 27    -0.0002625506013766
 28     0.0007464022804262
 29     0.0002169329299523
 30    -0.0001962804495157
 31    -0.0000087962082193
 32    -0.0000098510921372
 33     0.0000347696622935
 34    -0.0003131785392479
 35    -0.0008869108903208
 36    -0.0001120464310352
 37    -0.0000179262661622
 38     0.0104826488511601
 39    -0.2429060713552575
 40    -0.0000085511538786
 41     0.0000108516028256
 42     0.0281898893755558
 43     0.3524510479318063
 44    -0.0000355479671391
 45     0.0000145471789354
 46    -0.0737462836067814
 47     0.1284856315675035
 48     0.0000156734757409
 49     0.0000021319139288
 50    -0.1996584435826828
 51    -0.3090591752272905
 52     0.0000199077000313
 53    -0.0156463840473809
 54    -0.0017629391582550
 55    -0.1405573075164173
 56    -0.1901363290224262
 57    -0.0420880269187839
 58    -0.0061515664428578
 59     0.1622040770409044
 60    -0.2308195625556860
 61     0.0156586115978553
 62    -0.0016865272640343
 63    -0.1405057566128675
 64     0.1901649517679370
 65     0.0420811594480795
 66    -0.0060679066621158
 67     0.1621644775743897
 68     0.2308407045782976
 69    -0.0316069632177522
 70    -0.0398604320035785
 71     0.0455105417492703
 72    -0.0792420164735066
 73     0.0448413598584693
 74    -0.1039523859953857
 75    -0.1269930038651382
 76    -0.2482922031376427
 77     0.0316010598395706
 78    -0.0398357711446821
 79     0.0454612390516058
 80     0.0792696726075644
 81    -0.0448340375960508
 82    -0.1039562082287341
 83    -0.1269246762897814
 84     0.2483361030441083
 85    -0.0145234442724409
 86     0.0254926044780394
 87    -0.0322180343475634
 88    -0.0471595215869631
 89     0.0313093562498720
 90     0.0819713520410314
 91     0.1063373262548077
 92    -0.1954983776452135
 93     0.0145282462325017
 94     0.0254705192157589
 95    -0.0322149896812120
 96     0.0471577372365752
 97    -0.0313139587459198
 98     0.0819446358088308
 99     0.1064015002691740
 100     0.1954910116940523
 101    -0.0000079815979253
 102     0.0326342364356408
 103    -0.0437638549156162
 104    -0.0000210389980589
 105    -0.0000028827290111
 106     0.1336328486478766
 107     0.1773712902442178
 108    -0.0000119918406247
 109     0.0000102992749553
 110    -0.0050266564826259
 111     0.0067375789732823
 112    -0.0000089672963768
 113    -0.0000634697160716
 114    -0.0206754034239960
 115    -0.0273491092469107
 116    -0.0000264963562313
 117     0.0000411071545748
 118     0.0017657109109538
 119    -0.0021630708034522
 120    -0.0000289292045594
 121    -0.0001653029764301
 122     0.0073668138862585
 123     0.0088901956018382
 124    -0.0001248910576618
 125     0.0239064955969081
 126     0.0105469657066541
 127    -0.0054380606300164
 128    -0.0003551221369281
 129    -0.0238803153188340
 130    -0.0105394957374957
 131     0.0054007867149928
 132     0.0003417636554464
 133     0.0000995204833376
 134     0.0035520386966088
 135    -0.0009089012999251
 136    -0.0018553811962777
 137    -0.0001187876197356
 138    -0.0035565891976185
 139     0.0009219069744172
 140     0.0018563517521157
 141     0.0123383760003668
 142     0.0056968379906675
 143    -0.0216279697573841
 144    -0.0121653473948144
 145    -0.0123172096170558
 146    -0.0056913933055646
 147     0.0216205217111662
 148     0.0121719855723146
 149     0.0030871383708537
 150    -0.0009003320330873
 151     0.0008215556036524
 152    -0.0000385524695896
 153     0.0000424044871070
 154    -0.0001328338772770
 155    -0.0013216693596948
 156     0.0036796163897769
 157    -0.0004501812760212
 158    -0.0001128006446968
 159    -0.0017491985039564
 160     0.0002702650335830
 161    -0.0017439890965626
 162    -0.0004499967147836
 163     0.0065510890592267
 164    -0.0026685588559311
 165     0.0082700646934580
 166    -0.0020595467470833
 167    -0.0004072253448796
 168     0.0015326170670198
 169    -0.0000306263656108
 170    -0.0002996770914214
 171     0.0014761141790675
 172    -0.0149439045632785
 173     0.0008418150113398
 174     0.0166707186271672
 175     0.0028343896093623
 176    -0.0000486314289407
 177    -0.0012773303478997
 178    -0.0002206237683971
 179     0.0018419727610192
 180    -0.0009711982031454
 181     0.0089562205735026
 182     0.0064377596757386
 183     0.0089902212487372
 184    -0.0010683681256241
 Sym= 174A
 Ene= 0.969232
 Spin= Alpha
 Occup= 2.000000
  1     0.0024137897526125
  2    -0.0492971425352990
  3     0.0109135185192012
  4     0.0587899182135219
  5    -0.0202959583862856
  6     0.2658174639401460
  7     0.1552881225575207
  8     0.2754994975361443
  9     0.0730753466432455
 10     0.0174477203767763
 11     0.0504233183714268
 12     0.0000011533751809
 13    -0.0000126895679420
 14     0.0428535939420683
 15    -0.5110085121179462
 16     0.0000359082666121
 17     0.5484856359071284
 18    -0.1346514208812346
 19     0.0024166268535374
 20    -0.0493154975553467
 21    -0.0109160460403530
 22    -0.0587852316740580
 23    -0.0202743266138061
 24     0.2657136709048589
 25    -0.1551333297103414
 26     0.2754629056898346
 27     0.0731146625791929
 28    -0.0767158758171115
 29    -0.0325303534483711
 30    -0.0000203328267583
 31    -0.0000015731736937
 32     0.0013339788285109
 33    -0.0056837882691186
 34    -0.0000489350402247
 35     0.2043741870342648
 36     0.0171489374994828
 37    -0.0018157102502880
 38     0.0001611620918334
 39    -0.0014365507963505
 40    -0.0002651453004713
 41     0.0011050965406161
 42     0.0000480871819217
 43     0.0009030704268556
 44    -0.0015408907450487
 45    -0.0020543872714065
 46    -0.0010785695605475
 47     0.0016198844737581
 48     0.0028915596593549
 49     0.0007268342605990
 50    -0.0003545390363638
 51    -0.0005852984912908
 52    -0.0001122034126748
 53     0.0006443382149090
 54    -0.0000253240206393
 55    -0.0020498168413458
 56    -0.0005306710076571
 57    -0.0003014989822338
 58    -0.0000182780059688
 59     0.0023012923491164
 60    -0.0001781281914358
 61     0.0001864192847596
 62    -0.0000333054752354
 63     0.0008004050251027
 64     0.0011847904654272
 65    -0.0003959003509824
 66     0.0000042966072976
 67    -0.0012355966585545
 68     0.0011587694828196
 69     0.0015274021383295
 70     0.0010537477954273
 71    -0.0014365485702890
 72    -0.0029174260892799
 73    -0.0000044873334649
 74     0.0000643660296841
 75     0.0001178847163533
 76    -0.0004618607496132
 77     0.0008486352220776
 78    -0.0029123778253042
 79     0.0037293397659745
 80    -0.0001445712540538
 81    -0.0002447695365283
 82    -0.0004403816303696
 83    -0.0005602375526050
 84     0.0003583020145007
 85     0.0006352392757331
 86    -0.0006605860804507
 87     0.0010708898340500
 88    -0.0040401867280318
 89     0.0001450598607271
 90    -0.0002215709614373
 91    -0.0002985214646086
 92    -0.0004175647935103
 93    -0.0026956154980752
 94     0.0032528420871513
 95    -0.0040636411328614
 96     0.0008636727551291
 97     0.0000075364992906
 98     0.0004855159173487
 99     0.0006367500216569
 100     0.0001391173800430
 101     0.0017922326564172
 102     0.0024793306079713
 103    -0.0047285818191189
 104     0.0027995647885080
 105    -0.0003480355016281
 106     0.0001886365695848
 107     0.0002503005973344
 108     0.0005143458824154
 109    -0.0011424409910862
 110    -0.0005484243677762
 111     0.0056512786673218
 112     0.0014469223324611
 113    -0.0002362906132663
 114    -0.0000286107829699
 115    -0.0000329746619288
 116     0.0000534062088309
 117    -0.0063372087832724
 118     0.0001706351918346
 119    -0.0335918270037848
 120     0.0040242666615912
 121     0.0000448197142626
 122     0.0000100714182232
 123    -0.0000217665927006
 124    -0.0001162569267149
 125     0.0007074305216583
 126     0.0003273263919554
 127    -0.0011301432212901
 128    -0.0004317647930629
 129     0.0007135864958607
 130     0.0003726544534555
 131    -0.0009203410634193
 132    -0.0003464237595070
 133     0.0015552973318217
 134     0.0003989162440450
 135    -0.0001846825672850
 136    -0.0001380700736135
 137     0.0022361931282797
 138     0.0009721990769600
 139    -0.0001813267263599
 140    -0.0001112662943216
 141    -0.0029559771312832
 142     0.0006179812060539
 143     0.0002937252929186
 144     0.0001069043033378
 145    -0.0011482830332715
 146    -0.0017358365942361
 147     0.0003992078293440
 148     0.0001553857135782
 149     0.0000815851207832
 150    -0.0000340230447705
 151     0.0000011987903476
 152    -0.0000000775689314
 153     0.0000219758620320
 154     0.0000319498568109
 155    -0.0000015413368401
 156     0.0002116730578713
 157    -0.0000226831142335
 158    -0.0000016792860912
 159    -0.0000520614038036
 160     0.0000098119617622
 161    -0.0000611120045864
 162    -0.0000231156368730
 163     0.0002720702948781
 164    -0.0001553439959051
 165     0.0002852203817778
 166    -0.0000679127617279
 167    -0.0000199320020013
 168     0.0000529929190545
 169    -0.0000000369104338
 170    -0.0000004725072898
 171     0.0000426888522078
 172    -0.0005363192389341
 173     0.0000012576841399
 174     0.0005773238918588
 175     0.0001480449264643
 176    -0.0000016158601173
 177    -0.0000513087311667
 178    -0.0000097758432408
 179     0.0000612681063410
 180    -0.0000238727539556
 181     0.0002761191856260
 182     0.0001613035412831
 183     0.0002864113438079
 184    -0.0000668645821469
 Sym= 175A
 Ene= 0.969695
 Spin= Alpha
 Occup= 2.000000
  1    -0.0000030290111944
  2     0.0000448121877490
  3    -0.0000116146388050
  4    -0.0000543472552811
  5     0.0000165778726431
  6    -0.0002491203199302
  7    -0.0001494705348623
  8    -0.0002557345322252
  9    -0.0000760892437051
 10    -0.0000144783188830
 11    -0.0000460792994908
 12    -0.0000000391791002
 13     0.0000004557540368
 14    -0.0000415041112468
 15     0.0004682104873043
 16    -0.0000012359914218
 17    -0.0004998116802155
 18     0.0001167538704283
 19    -0.0000031004947888
 20     0.0000455274899729
 21     0.0000116597415633
 22     0.0000541929570431
 23     0.0000158317775029
 24    -0.0002452872004311
 25     0.0001437530617533
 26    -0.0002545683509473
 27    -0.0000772331450770
 28     0.0000694568837857
 29     0.0000300315820652
 30     0.0000011912132967
 31     0.0000000679970113
 32     0.0000241628064220
 33     0.0000482995168941
 34     0.0000016399185791
 35    -0.0001912578663275
 36    -0.0000044259099120
 37     0.0005331765560538
 38    -0.0000663716221320
 39     0.0019681091061152
 40     0.0004258026702962
 41    -0.0006243714490538
 42    -0.0004550546272930
 43    -0.0040600650230683
 44     0.0003122019871552
 45     0.0004538051385301
 46     0.0004995101278580
 47    -0.0009111529716156
 48    -0.0003702106585894
 49    -0.0006828376154787
 50     0.0032200955789494
 51     0.0047826325724621
 52    -0.0007282687695220
 53     0.0001592520272761
 54     0.0000062942361749
 55     0.0019525149193205
 56     0.0014183458727938
 57     0.0009251217601054
 58     0.0000949805039479
 59    -0.0023420840972464
 60     0.0021843351119992
 61    -0.0004662486826857
 62     0.0000002161552546
 63     0.0006547302024983
 64    -0.0017758422563368
 65    -0.0005963451391683
 66     0.0000957432227398
 67    -0.0010844795612669
 68    -0.0025124096894549
 69     0.0000360529084753
 70    -0.0000541437439464
 71     0.0001263892746811
 72     0.0007540679958629
 73     0.0005755220794186
 74     0.0015932944206144
 75     0.0019483524639294
 76     0.0046089119984429
 77    -0.0004446343198139
 78     0.0006074874531534
 79    -0.0007404417147972
 80    -0.0002819804273010
 81    -0.0000705006108744
 82     0.0027367163121294
 83     0.0034377359900048
 84    -0.0039608565369639
 85     0.0002872233576231
 86     0.0001986019332104
 87    -0.0002722132886424
 88     0.0005452751171812
 89     0.0016695979328598
 90    -0.0019652699764657
 91    -0.0023528746852679
 92     0.0057573289234225
 93     0.0000865234829511
 94    -0.0005272873688656
 95     0.0006819401690634
 96    -0.0000134393386776
 97    -0.0018977955137583
 98    -0.0029241747520657
 99    -0.0036138819042186
 100    -0.0050848361164411
 101    -0.0003360712288016
 102    -0.0001935163242173
 103     0.0002626303909261
 104    -0.0005686216150505
 105     0.0004967752312476
 106    -0.0046948201660648
 107    -0.0077340696344602
 108    -0.0003571872896654
 109    -0.0002804085803502
 110     0.0000295625015857
 111    -0.0000446138882983
 112    -0.0000545504397585
 113    -0.0023346282742411
 114     0.0009057787104369
 115     0.0063041908871942
 116    -0.0011227235258157
 117     0.0000727595352485
 118    -0.0000102288953826
 119     0.0000447125445123
 120     0.0001383504279433
 121    -0.0059920649074821
 122    -0.0003052926489810
 123    -0.0342659693796080
 124    -0.0045682943695843
 125    -0.0006850921766731
 126    -0.0002870108282716
 127     0.0003155565299041
 128     0.0000803676732255
 129    -0.0000320176393105
 130    -0.0000055190436249
 131     0.0003489440511456
 132     0.0002246750095064
 133    -0.0002955482862738
 134    -0.0001597833153613
 135     0.0000323355358821
 136    -0.0001810420575093
 137    -0.0003033567680326
 138    -0.0000893946548170
 139     0.0010868438318758
 140     0.0005822083308037
 141     0.0002661294138212
 142     0.0000843630769290
 143    -0.0015115701835678
 144     0.0012075416012150
 145     0.0004413999069033
 146     0.0001646517541408
 147     0.0002807947496468
 148    -0.0013409526726772
 149     0.0770170527443833
 150    -0.0326714143088351
 151    -0.0000136840712191
 152    -0.0000066783614668
 153     0.0014487763978421
 154    -0.0052481510010977
 155     0.0001232307406702
 156     0.2058370447247369
 157    -0.0167765395296666
 158    -0.0023866672493433
 159    -0.0492919181077050
 160     0.0109141321372081
 161    -0.0587599012786999
 162    -0.0202776855144298
 163     0.2655331464491998
 164    -0.1550770352500557
 165     0.2751507473558362
 166    -0.0731268051795456
 167    -0.0175670840393438
 168     0.0504203451516528
 169     0.0000027663175537
 170    -0.0000029943896908
 171     0.0427020876781117
 172    -0.5109607274195617
 173    -0.0000118034604923
 174     0.5481721117340957
 175     0.1353313802671694
 176    -0.0023954878429897
 177    -0.0492780154788863
 178    -0.0109235091542856
 179     0.0587580336530100
 180    -0.0202684309798643
 181     0.2656220457620767
 182     0.1551421984321154
 183     0.2751448595475647
 184    -0.0732371267753723
 Sym= 176A
 Ene= 0.976820
 Spin= Alpha
 Occup= 2.000000
  1     0.0003413350771176
  2     0.0009443419000273
  3     0.0004734199294004
  4    -0.0009474273965814
  5     0.0014286315529657
  6    -0.0037512431082892
  7    -0.0010945409034621
  8    -0.0039114271386115
  9     0.0026135596332946
 10    -0.0010861864244578
 11    -0.0010249237669985
 12    -0.0000000265246218
 13     0.0000000190644876
 14     0.0003081783406385
 15     0.0100983683394256
 16     0.0000000221675334
 17    -0.0118170972128983
 18     0.0063773617235361
 19     0.0003412398507653
 20     0.0009443375131777
 21    -0.0004733092237544
 22     0.0009474227213793
 23     0.0014285801386087
 24    -0.0037519607033406
 25     0.0010945681525838
 26    -0.0039112873574626
 27     0.0026118143480884
 28     0.0013760707390328
 29     0.0005798171386805
 30    -0.0000003294894405
 31     0.0000025815128388
 32    -0.0122593668971065
 33    -0.0201664006787638
 34     0.0000009518654466
 35    -0.0036763869295800
 36    -0.0064342676198575
 37    -0.1675729493672448
 38    -0.0000146787273575
 39     0.0000350390668736
 40    -0.0594566616372518
 41     0.1140686610462873
 42    -0.0000271467157185
 43    -0.0000427204990061
 44    -0.1565057533595832
 45    -0.1781484604626344
 46     0.0000261540840181
 47    -0.0000540467756986
 48     0.2243523501212766
 49     0.0802448347292345
 50     0.0000189152374822
 51     0.0000329886166386
 52    -0.0027944006647500
 53     0.0473355369191655
 54     0.0000564100662474
 55    -0.1540683608394369
 56     0.0450210313732092
 57    -0.0425573798821258
 58    -0.0009642113694884
 59     0.1802470500018352
 60     0.0574225823329119
 61     0.0473374282074213
 62    -0.0000403148369033
 63     0.1541152816592867
 64     0.0449675612832519
 65    -0.0425633293593377
 66     0.0009870485366336
 67    -0.1802859507565964
 68     0.0573837268145365
 69     0.1018738347634552
 70     0.1615351218449324
 71    -0.2106324509324233
 72    -0.1275769094395650
 73    -0.0165379055652725
 74     0.0317998925070881
 75     0.0423893994983096
 76    -0.0103927285767133
 77     0.1018945688351511
 78    -0.1614996484240211
 79     0.2106599048281719
 80    -0.1275379260310114
 81    -0.0165350987899554
 82    -0.0317720627837844
 83    -0.0423632380915655
 84    -0.0104357477333722
 85    -0.0973094077571125
 86    -0.1696291989962481
 87     0.2226259295945506
 88    -0.1350781675440491
 89     0.0116364719288939
 90    -0.0421294719264964
 91    -0.0556283827945032
 92    -0.0194614708922511
 93    -0.0972339693655293
 94     0.1695704910130221
 95    -0.2225136713428379
 96    -0.1352670780382909
 97     0.0116209159054302
 98     0.0421049504709391
 99     0.0555922122571443
 100    -0.0195308792977113
 101     0.1556557687576176
 102    -0.0000660894747558
 103     0.0000384205537722
 104     0.2687189610154814
 105    -0.0409961124196850
 106    -0.0000308634682230
 107    -0.0000284802139840
 108     0.0620053225468860
 109     0.1354619589823095
 110     0.0000072566679565
 111    -0.0001193531798184
 112     0.0238707879451968
 113    -0.0286988264676487
 114     0.0000049566955660
 115     0.0000296861437905
 116     0.0062740584840452
 117    -0.0328516415980868
 118     0.0000013866383794
 119     0.0006133349605122
 120    -0.0692809532844539
 121     0.0064300004758091
 122     0.0000010171891240
 123    -0.0001579642924790
 124    -0.0139148887533616
 125     0.0804373664859726
 126     0.0359507200168177
 127    -0.1040122342857524
 128    -0.0392534738900479
 129     0.0804478186634452
 130     0.0359546351546188
 131    -0.1040187133145673
 132    -0.0392564529114724
 133     0.1509552978308711
 134     0.0569885619762989
 135    -0.0245883489394563
 136    -0.0145670220459398
 137     0.1509479513524112
 138     0.0569794910823574
 139    -0.0245858170021027
 140    -0.0145641205790113
 141    -0.1649740135070216
 142    -0.0572314510840593
 143     0.0412233198144694
 144     0.0153478770390713
 145    -0.1650097086560932
 146    -0.0571903175280392
 147     0.0412314700188228
 148     0.0153360227817179
 149     0.0003491904233561
 150    -0.0001472745833169
 151     0.0000002308235175
 152     0.0000007013025129
 153     0.0025242457202495
 154     0.0044696612407669
 155     0.0000003828427463
 156     0.0009357131190150
 157    -0.0008583507696917
 158     0.0000891654417260
 159    -0.0002396528552465
 160    -0.0001244286601092
 161    -0.0002377663083532
 162    -0.0003471997981878
 163     0.0008611584495813
 164    -0.0002820905643514
 165     0.0009915322707507
 166     0.0006295472150686
 167    -0.0002805541619354
 168     0.0002609724113591
 169     0.0000000015439929
 170    -0.0000000383465684
 171    -0.0000645369742919
 172    -0.0026394307297384
 173     0.0000001063531952
 174     0.0029783465456215
 175     0.0015834992637179
 176     0.0000891190791114
 177    -0.0002395494841315
 178     0.0001243532685450
 179     0.0002377687842517
 180    -0.0003472211229092
 181     0.0008619254761844
 182     0.0002827862082604
 183     0.0009915126951326
 184     0.0006286476491703
 Sym= 177A
 Ene= 1.005597
 Spin= Alpha
 Occup= 2.000000
  1    -0.0001300876138016
  2    -0.0000974747157706
  3    -0.0002158562353210
  4     0.0000574033441419
  5    -0.0004655023456586
  6     0.0003083731775908
  7    -0.0003919301527558
  8     0.0000456093036130
  9    -0.0014138818051076
 10     0.0002967870661572
 11     0.0001189922174421
 12     0.0000000100231531
 13     0.0000001926343385
 14    -0.0003707942892364
 15    -0.0008825849014778
 16    -0.0000004792091149
 17     0.0016099173234333
 18    -0.0017559927802120
 19    -0.0001300686345828
 20    -0.0000971683908415
 21     0.0002158433693512
 22    -0.0000574743422698
 23    -0.0004657742949403
 24     0.0003104157629708
 25     0.0003894606222008
 26     0.0000461824697830
 27    -0.0014137023725500
 28    -0.0001208273032119
 29    -0.0000498108437375
 30     0.0000003897817228
 31    -0.0000010197435058
 32     0.0063455668548675
 33     0.0094469314918120
 34     0.0000000152024181
 35     0.0003262117053927
 36     0.0046661061468986
 37    -0.0665223036557991
 38    -0.0000484107787640
 39     0.0000433618301817
 40    -0.2558080626511495
 41     0.1523276023188854
 42    -0.0000239647168384
 43    -0.0000259573028957
 44    -0.1336173113882606
 45     0.0118073556519444
 46    -0.0000000865857014
 47    -0.0000025964898264
 48    -0.2122287842606611
 49     0.1586701820889786
 50     0.0000094796549035
 51     0.0000300206234842
 52     0.1261097976902897
 53     0.0721241199277268
 54    -0.0014473362599752
 55    -0.2122610210274798
 56     0.1069728957742561
 57    -0.0797996277500269
 58    -0.0000421549826568
 59     0.1876178259789192
 60     0.0911545857593972
 61     0.0721432552199403
 62     0.0014835604321847
 63     0.2123145050636079
 64     0.1069153035541964
 65    -0.0797947997169648
 66     0.0000783268020602
 67    -0.1876453166832858
 68     0.0911339682883636
 69    -0.0608005993144926
 70    -0.0890937248503855
 71     0.1147751425279181
 72     0.0939400729505658
 73    -0.0701458941284154
 74     0.1158356992331375
 75     0.1513108780582366
 76    -0.0815254830611267
 77    -0.0608270621751892
 78     0.0891064521469440
 79    -0.1148344171961646
 80     0.0938720001226421
 81    -0.0701453627405348
 82    -0.1158143832108331
 83    -0.1513259307016074
 84    -0.0815261391545601
 85     0.0648866313475828
 86     0.0794570700353240
 87    -0.1037859190835787
 88     0.0844028781063715
 89     0.0647331651939284
 90    -0.1272103271416416
 91    -0.1671070293437980
 92    -0.0921221509074992
 93     0.0648688515839064
 94    -0.0794552097387564
 95     0.1037549335457267
 96     0.0844492887533151
 97     0.0647214946270905
 98     0.1272053837740366
 99     0.1670689053900403
 100    -0.0921941054487365
 101    -0.0706357998711005
 102     0.0000106104770963
 103     0.0000198381599498
 104    -0.1314326551293454
 105    -0.1191575041022725
 106    -0.0000348507208939
 107     0.0000102952697173
 108     0.1960889840350748
 109    -0.0697552543360581
 110     0.0000008802875288
 111     0.0000167216022570
 112    -0.0087157979670640
 113    -0.0966167829393377
 114     0.0000048450662422
 115     0.0000173336991133
 116     0.0159166552753450
 117     0.0185051773231525
 118    -0.0000023824814703
 119    -0.0000581277450029
 120     0.0374405207445076
 121     0.0240591607641439
 122     0.0000086626835006
 123    -0.0000972818166383
 124    -0.0495002451097226
 125     0.1275019898164394
 126     0.0408131793872901
 127    -0.1033512989957251
 128    -0.0404542826195776
 129     0.1275074174507951
 130     0.0408169158464589
 131    -0.1033602050118772
 132    -0.0404596425819298
 133    -0.0912839733234732
 134    -0.0253676741835206
 135    -0.1052887839438597
 136    -0.0418476474016010
 137    -0.0912809469668907
 138    -0.0253677855518842
 139    -0.1052937266853620
 140    -0.0418480199286025
 141     0.0767423621546932
 142     0.0249853645463784
 143     0.1236798803565006
 144     0.0434185760216805
 145     0.0767520991276835
 146     0.0249846287054628
 147     0.1236903462695318
 148     0.0434136203639745
 149     0.0001990387114117
 150    -0.0000821581666277
 151     0.0000011755436297
 152     0.0000018873209730
 153     0.0085714535364224
 154     0.0138363579885053
 155    -0.0000005498150584
 156     0.0005390023848190
 157    -0.0046558868434795
 158     0.0002460865096221
 159    -0.0001673939235677
 160    -0.0004106496655616
 161    -0.0000815030179693
 162    -0.0007604919940273
 163     0.0000786986254990
 164     0.0007092540935174
 165     0.0000362577509779
 166     0.0023964037194625
 167    -0.0005524124608072
 168     0.0002099263857960
 169    -0.0000000201319449
 170    -0.0000003524336637
 171    -0.0006054667931447
 172    -0.0018749542100143
 173     0.0000010237118189
 174     0.0027174634049731
 175     0.0029592898461350
 176     0.0002460587749182
 177    -0.0001668140723898
 178     0.0004105625602099
 179     0.0000816267667027
 180    -0.0007610207864964
 181     0.0000824020412924
 182    -0.0007045630969314
 183     0.0000371235998045
 184     0.0023955960394242
 Sym= 178A
 Ene= 1.033943
 Spin= Alpha
 Occup= 2.000000
  1     0.0000207137102459
  2     0.0000138181918895
  3     0.0000345651122094
  4    -0.0000096579725767
  5     0.0001165061491327
  6    -0.0002049630046197
  7     0.0000983873999455
  8     0.0000182481719409
  9     0.0003398024442513
 10    -0.0000469722737842
 11    -0.0000162540206246
 12    -0.0000000064144127
 13    -0.0000001456820126
 14     0.0001029239309684
 15    -0.0000315843106030
 16     0.0000003248668084
 17    -0.0002859615631365
 18     0.0003918631697526
 19     0.0000206991050618
 20     0.0000135891269266
 21    -0.0000345526456323
 22     0.0000097121723735
 23     0.0001166873221787
 24    -0.0002064663138585
 25    -0.0000965592219701
 26     0.0000177789070615
 27     0.0003397151263960
 28     0.0000178761844880
 29     0.0000072677197362
 30    -0.0000002082529366
 31     0.0000002772758417
 32    -0.0023808580743345
 33    -0.0031028305766712
 34     0.0000000589489121
 35    -0.0000488744170699
 36    -0.0024060988207639
 37     0.0651480051007136
 38     0.0000360124944208
 39    -0.0000266210422399
 40     0.1917732799281812
 41    -0.0207873280398269
 42     0.0000376161504232
 43     0.0000221729630861
 44     0.2665432819505245
 45     0.0239274028499046
 46     0.0000007760204201
 47     0.0000029231484143
 48     0.1128972432200282
 49     0.0622489598492431
 50     0.0000052269713583
 51     0.0000272524129545
 52     0.3016089340863778
 53    -0.0840990777533269
 54     0.0004792576143941
 55     0.1664890023140770
 56    -0.1104899462642807
 57     0.0807164326092658
 58     0.0012662868024052
 59    -0.1848243675358985
 60    -0.1198783485640524
 61    -0.0841098898353033
 62    -0.0005181182736553
 63    -0.1665261438400388
 64    -0.1104526058835960
 65     0.0807130222592133
 66    -0.0013098772316686
 67     0.1848398755332126
 68    -0.1198676809254473
 69     0.0255093805238754
 70     0.0348433217842637
 71    -0.0447309310064816
 72    -0.0441286503057767
 73    -0.0983838982465743
 74     0.1456165902792882
 75     0.1885045109329761
 76    -0.1437048565824995
 77     0.0255230800107779
 78    -0.0348519868852116
 79     0.0447596884721911
 80    -0.0440983996500121
 81    -0.0983915298295194
 82    -0.1456037508453228
 83    -0.1885499114646710
 84    -0.1436815784316060
 85    -0.0287847652160426
 86    -0.0269961296917147
 87     0.0351635312066551
 88    -0.0359318932091166
 89     0.1017596797734192
 90    -0.1363597547417583
 91    -0.1784966466060879
 92    -0.1344181139751546
 93    -0.0287787682416485
 94     0.0269975629789618
 95    -0.0351523072171656
 96    -0.0359454910258771
 97     0.1017515276163583
 98     0.1363683199100139
 99     0.1784574505875753
 100    -0.1344790858920815
 101     0.0234091290892283
 102    -0.0000025569928366
 103    -0.0000089278747455
 104     0.0465857757352395
 105    -0.1238064731142465
 106    -0.0000304541297379
 107     0.0000246938996060
 108     0.2196511699371443
 109     0.0259620769251292
 110    -0.0000004891515972
 111    -0.0000039362672821
 112     0.0018926556321601
 113    -0.1144728846768999
 114     0.0000050677877589
 115     0.0000082690027791
 116     0.0127520020197632
 117    -0.0074154537187125
 118     0.0000009984874450
 119     0.0000097469908327
 120    -0.0146196686291326
 121     0.0310105639704656
 122     0.0000117618159506
 123    -0.0000564797694548
 124    -0.0617969658511275
 125    -0.0975692753949161
 126    -0.0308059625652941
 127     0.1142154081687129
 128     0.0324388260899290
 129    -0.0975739601562085
 130    -0.0308087793263579
 131     0.1142230763853970
 132     0.0324414461381963
 133     0.0375999917638401
 134     0.0087465344298936
 135    -0.1445793841901401
 136    -0.0448535309626879
 137     0.0375982042722190
 138     0.0087472093306685
 139    -0.1445863079263278
 140    -0.0448549347987169
 141    -0.0258478414154275
 142    -0.0079417818042270
 143     0.1314943746322086
 144     0.0437111586728373
 145    -0.0258515215847291
 146    -0.0079426644396318
 147     0.1315053291707196
 148     0.0437103207606555
 149     0.0001022784160137
 150    -0.0000415841529987
 151     0.0000019545529180
 152     0.0000015998911560
 153     0.0102604615486118
 154     0.0146958187430975
 155    -0.0000001704146335
 156     0.0002805466223641
 157    -0.0082762929472994
 158     0.0001785046619457
 159    -0.0000924976419709
 160    -0.0003017553453334
 161    -0.0000316441556187
 162    -0.0006611846332216
 163     0.0003893203345403
 164     0.0006902306129918
 165    -0.0001792304310259
 166     0.0020895079094114
 167    -0.0003887669653731
 168     0.0001195571722453
 169    -0.0000000038781782
 170    -0.0000010052346401
 171    -0.0005842700733885
 172    -0.0005964126389547
 173     0.0000024127351630
 174     0.0017779841821725
 175     0.0023874085294623
 176     0.0001784152261075
 177    -0.0000909062051220
 178     0.0003015934980967
 179     0.0000320146755575
 180    -0.0006624632590280
 181     0.0003996061687034
 182    -0.0006774799181263
 183    -0.0001761763978864
 184     0.0020883541784293
 Sym= 179A
 Ene= 1.074156
 Spin= Alpha
 Occup= 2.000000
  1     0.0084846479891883
  2     0.0617369861205026
  3     0.0112180835487136
  4     0.0150888238307842
  5    -0.0379219521593371
  6     0.4363199708790651
  7     0.4898770109760121
  8     0.1363721303294250
  9     0.1026731985973234
 10    -0.0000020825976662
 11    -0.0000029143068730
 12    -0.0034481026365389
 13    -0.0787353546573518
 14    -0.0000007254562621
 15     0.0000368264884176
 16     0.1588725611697475
 17    -0.0000322403290841
 18     0.0000242382697808
 19    -0.0084860260246077
 20    -0.0617312337206720
 21     0.0112243808735093
 22     0.0150964061508828
 23     0.0379194292983986
 24    -0.4363651596287548
 25     0.4898984591006181
 26    -0.1363990918057234
 27    -0.1027093123850793
 28     0.0000024698155342
 29     0.0000034505926650
 30    -0.0725858968167757
 31    -0.0300369172293035
 32    -0.0000010728706100
 33     0.0000071631488346
 34     0.1766362571902666
 35    -0.0000501519011079
 36    -0.0000181424306436
 37     0.0000000422955274
 38    -0.0000254662690469
 39     0.0000908931074578
 40    -0.0000004163520695
 41     0.0000000745400845
 42    -0.0000000675001006
 43    -0.0000123297191173
 44    -0.0000001999343319
 45     0.0000001259306799
 46     0.0001362604215091
 47    -0.0001757339460424
 48    -0.0000005836896684
 49     0.0000000269834032
 50     0.0000020164600846
 51     0.0000043665052699
 52    -0.0000001135678083
 53    -0.0000321998720667
 54     0.0000015460108144
 55     0.0000233672688792
 56     0.0000344542188080
 57    -0.0000064711345336
 58    -0.0000001855345048
 59    -0.0000132214666345
 60     0.0000099186735599
 61     0.0000323636340249
 62     0.0000015652571248
 63     0.0000238689820242
 64    -0.0000341792544952
 65     0.0000062834024951
 66    -0.0000001930385035
 67    -0.0000135848283980
 68    -0.0000096767575754
 69    -0.0001182437846407
 70     0.0001686235466219
 71    -0.0002414378379219
 72     0.0001424523406623
 73    -0.0000012574420669
 74     0.0000011615469080
 75     0.0000011680053511
 76     0.0000020374066811
 77     0.0001173600769150
 78     0.0001691509311891
 79    -0.0002421016087151
 80    -0.0001414322050224
 81     0.0000013075160564
 82     0.0000012300365303
 83     0.0000012550241431
 84    -0.0000019492656560
 85    -0.0007094524198180
 86    -0.0002355210841768
 87     0.0004798762292103
 88     0.0005082902124080
 89    -0.0000004569814235
 90    -0.0000005472182614
 91    -0.0000006446518422
 92     0.0000008180144960
 93     0.0007092861335273
 94    -0.0002366837524803
 95     0.0004817400566639
 96    -0.0005074268772142
 97     0.0000003996923165
 98    -0.0000005991492068
 99    -0.0000007126336384
 100    -0.0000007466814233
 101    -0.0000001738491435
 102    -0.0016341677557105
 103     0.0008240533613738
 104    -0.0000018979364395
 105     0.0000000228269945
 106    -0.0000005194604286
 107    -0.0000007249141075
 108    -0.0000000443818643
 109     0.0000029774177519
 110     0.0035614784705907
 111    -0.0002411380741483
 112    -0.0000043057175878
 113     0.0000000249682108
 114     0.0000000662812421
 115     0.0000001032929319
 116    -0.0000000008470764
 117     0.0000036666536855
 118    -0.0272866506864537
 119     0.0000659510469928
 120    -0.0000066297145951
 121    -0.0000000075505837
 122     0.0000000305426049
 123    -0.0000000350216541
 124     0.0000000144619693
 125     0.0000184956157827
 126     0.0000048151991376
 127     0.0000056371006994
 128     0.0000027584379065
 129    -0.0000180887783314
 130    -0.0000047685798700
 131    -0.0000058503342199
 132    -0.0000028203007056
 133     0.0000537709049611
 134     0.0001108260695528
 135     0.0000000534057823
 136     0.0000003777552449
 137    -0.0000550528760388
 138    -0.0001105548523428
 139     0.0000000212269220
 140    -0.0000003611879386
 141     0.0005123587894053
 142    -0.0007677920226329
 143     0.0000003555215776
 144     0.0000001382366971
 145    -0.0005079949305636
 146     0.0007611104007176
 147    -0.0000004051770984
 148    -0.0000001533466493
 149    -0.0000000017174616
 150    -0.0000000006752845
 151    -0.0000001473319051
 152     0.0000000599946090
 153    -0.0000000022627604
 154    -0.0000000026438953
 155    -0.0000003493878454
 156     0.0000000099131628
 157     0.0000000026903211
 158    -0.0000000168192937
 159     0.0000001225797881
 160     0.0000000226620678
 161    -0.0000000308831632
 162    -0.0000000758404825
 163     0.0000008737814666
 164    -0.0000009800031813
 165     0.0000002748648577
 166    -0.0000002062061195
 167    -0.0000000005634483
 168     0.0000000006813709
 169    -0.0000000067965778
 170     0.0000001571104120
 171     0.0000000001671096
 172    -0.0000000088346159
 173    -0.0000003173097703
 174     0.0000000073645853
 175     0.0000000049817198
 176     0.0000000168607001
 177    -0.0000001238417179
 178     0.0000000219693552
 179    -0.0000000293523689
 180     0.0000000758828804
 181    -0.0000008655206425
 182    -0.0000009748676724
 183    -0.0000002687940197
 184     0.0000002006386676
 Sym= 180A
 Ene= 1.074677
 Spin= Alpha
 Occup= 2.000000
  1    -0.0000000168204763
  2    -0.0000001213011152
  3    -0.0000000218122863
  4    -0.0000000287825705
  5     0.0000000738659141
  6    -0.0000008506188941
  7    -0.0000009551404936
  8    -0.0000002641259307
  9    -0.0000002001956276
 10     0.0000000006791982
 11     0.0000000006895108
 12     0.0000000068641400
 13     0.0000001539020525
 14     0.0000000001170701
 15    -0.0000000094609887
 16    -0.0000003099352474
 17     0.0000000074005789
 18    -0.0000000053413464
 19     0.0000000166659172
 20     0.0000001200356840
 21    -0.0000000223501640
 22    -0.0000000302475511
 23    -0.0000000738011117
 24     0.0000008575944554
 25    -0.0000009599351212
 26     0.0000002698317467
 27     0.0000002056122285
 28     0.0000000020336665
 29    -0.0000000006832325
 30     0.0000001397974051
 31     0.0000000588987438
 32    -0.0000000047085945
 33    -0.0000000047593480
 34    -0.0000003506306968
 35     0.0000000103792047
 36    -0.0000000068503774
 37     0.0000002364655363
 38     0.0000000093880979
 39    -0.0000187856313134
 40     0.0000006503275017
 41     0.0000003340779105
 42     0.0000332786012111
 43     0.0001288459765431
 44     0.0000015843361081
 45     0.0000001273804516
 46    -0.0000025464498801
 47     0.0000058453713695
 48     0.0000003145740221
 49     0.0000006744192887
 50    -0.0001951965743940
 51    -0.0002565896587309
 52     0.0000025683010796
 53    -0.0000102193202310
 54     0.0000004617494390
 55    -0.0000195405829288
 56    -0.0000161419917160
 57    -0.0000426507674821
 58    -0.0000032349956485
 59     0.0000363066581384
 60    -0.0000508006089644
 61     0.0000094741354681
 62     0.0000004732456290
 63    -0.0000206808232715
 64     0.0000152164298785
 65     0.0000433100904822
 66    -0.0000032650162783
 67     0.0000379179528371
 68     0.0000496604846442
 69    -0.0000016590337951
 70    -0.0000015177881119
 71     0.0000014533727701
 72    -0.0000025322031418
 73    -0.0001544630121495
 74    -0.0002193578673323
 75    -0.0003095966842227
 76    -0.0002274750892975
 77     0.0000017721373830
 78    -0.0000016611780716
 79     0.0000016367486198
 80     0.0000023147857103
 81     0.0001512494748554
 82    -0.0002218656059356
 83    -0.0003127973989157
 84     0.0002234286253921
 85    -0.0000005795128959
 86     0.0000006439884868
 87    -0.0000007360775676
 88    -0.0000009198134574
 89    -0.0007958772745165
 90     0.0002965265730424
 91     0.0005738657921669
 92    -0.0006736990766151
 93     0.0000004451548578
 94     0.0000007364750961
 95    -0.0000008566609854
 96     0.0000007584952761
 97     0.0007968608146830
 98     0.0003000835497669
 99     0.0005789477179672
 100     0.0006690904292929
 101     0.0000000391250663
 102     0.0000005699473868
 103    -0.0000008022677113
 104     0.0000000847294395
 105     0.0000018024629069
 106     0.0018337470002966
 107     0.0010298339992390
 108     0.0000061961477898
 109     0.0000000507735516
 110    -0.0000000859749693
 111     0.0000001141378166
 112    -0.0000000002729061
 113     0.0000145971107443
 114    -0.0037002721804542
 115    -0.0002762680727745
 116     0.0000164192545759
 117    -0.0000000159796586
 118     0.0000000796193322
 119    -0.0000000384018714
 120    -0.0000000306177274
 121     0.0000181322151863
 122     0.0276425526939589
 123     0.0000704835444800
 124     0.0000284052620664
 125     0.0000083015717538
 126     0.0000037927476722
 127     0.0000191142434470
 128     0.0000073537881237
 129    -0.0000089604826531
 130    -0.0000039876210460
 131    -0.0000179569915589
 132    -0.0000071480790741
 133    -0.0000000029263265
 134     0.0000005435261854
 135     0.0000830920510408
 136     0.0001271502477688
 137     0.0000001662261337
 138    -0.0000005121447074
 139    -0.0000864693632089
 140    -0.0001273138569561
 141     0.0000004332718427
 142     0.0000001643981219
 143     0.0005450382157958
 144    -0.0007838037735944
 145    -0.0000005207917469
 146    -0.0000001889731959
 147    -0.0005364413807274
 148     0.0007765115323704
 149     0.0000176083781034
 150    -0.0000041421968193
 151    -0.0728504862304774
 152     0.0301497579743660
 153    -0.0000048443198831
 154     0.0000322362248100
 155    -0.1776690396553188
 156    -0.0000038022463614
 157     0.0000813430843272
 158    -0.0085124404711365
 159     0.0617199307508667
 160     0.0112496653379247
 161    -0.0151066678801118
 162    -0.0378753022272797
 163     0.4363298528617016
 164    -0.4897226957953186
 165     0.1364350746008799
 166    -0.1029749674443486
 167    -0.0000071583657974
 168     0.0000112981810207
 169    -0.0034656555376916
 170     0.0787137415196871
 171     0.0000064608499957
 172    -0.0001051848461997
 173    -0.1586758086755619
 174     0.0001117733936669
 175     0.0000233392064161
 176     0.0085174228792799
 177    -0.0617381053505790
 178     0.0112594927620322
 179    -0.0150869204106394
 180     0.0378540936999130
 181    -0.4362519301635703
 182    -0.4896527522290058
 183    -0.1363285599695639
 184     0.1030038990123155
 Sym= 181A
 Ene= 1.268585
 Spin= Alpha
 Occup= 2.000000
  1    -0.0281332322596038
  2    -0.0067750991113595
  3    -0.0486812418948458
  4    -0.0078521596093766
  5    -0.0452230974058684
  6    -0.1754364290019538
  7    -0.0921628415922182
  8    -0.0504337271598970
  9    -0.1884076560060324
 10     0.0570229772632549
 11     0.0121779283843910
 12     0.0000001543958286
 13     0.0000014840133486
 14    -0.0439888187150457
 15    -0.1929748229073249
 16    -0.0000023019687470
 17     0.1277570704712922
 18    -0.1955149585539157
 19    -0.0281325606445848
 20    -0.0067727402541355
 21     0.0486803576561740
 22     0.0078514986209067
 23    -0.0452238381052053
 24    -0.1754172369231021
 25     0.0921438672112599
 26    -0.0504272953816267
 27    -0.1884007314827087
 28    -0.0021150508231543
 29    -0.0006883429480494
 30     0.0000003591667390
 31     0.0000011300062666
 32    -0.0168749292796099
 33     0.3502706479884516
 34    -0.0000060730929931
 35     0.0057872190364476
 36    -0.7090452925102155
 37     0.0009699479691298
 38     0.0000001710947599
 39    -0.0000009519846356
 40    -0.0016217829132450
 41     0.0000456013608979
 42    -0.0000000310623941
 43    -0.0000000226247136
 44    -0.0002126377003672
 45    -0.0001148145498742
 46    -0.0000014605015362
 47     0.0000024783690368
 48    -0.0032534071097145
 49     0.0000569792058894
 50    -0.0000000029032796
 51    -0.0000000114379166
 52    -0.0000866818845482
 53     0.0002095582140662
 54    -0.0000076720320276
 55    -0.0003963801341161
 56     0.0004430600103969
 57    -0.0002426839327206
 58     0.0000000705417115
 59     0.0001448237152078
 60     0.0002722205040354
 61     0.0002085675334163
 62     0.0000079801469331
 63     0.0003964065145315
 64     0.0004433198031212
 65    -0.0002426481299990
 66     0.0000000037220194
 67    -0.0001447489053279
 68     0.0002720861584448
 69    -0.0051434301102065
 70    -0.0006861224316249
 71     0.0008977521130021
 72     0.0056532742816296
 73     0.0000108034760303
 74    -0.0000100569369563
 75    -0.0000143040990386
 76     0.0000244124968244
 77    -0.0051478131881687
 78     0.0006795384916011
 79    -0.0008917716544892
 80     0.0056549034759074
 81     0.0000107980349111
 82     0.0000100596552045
 83     0.0000143113801278
 84     0.0000244099602539
 85     0.0012614975464566
 86     0.0037419410435482
 87    -0.0048968112332124
 88     0.0105321426726232
 89    -0.0000134520169693
 90     0.0000034445062483
 91     0.0000047304435282
 92     0.0000137887401666
 93     0.0012218360099820
 94    -0.0037271899101199
 95     0.0048772945065840
 96     0.0105477142567169
 97    -0.0000134564209423
 98    -0.0000034484974426
 99    -0.0000047283099238
 100     0.0000137870312807
 101     0.0397913761127073
 102     0.0000136350651642
 103    -0.0000295443952517
 104    -0.0418551193000458
 105     0.0000077225325149
 106    -0.0000000011200897
 107    -0.0000000058885133
 108    -0.0000049183163426
 109     0.1334601104089296
 110     0.0000037978246135
 111     0.0001188103592718
 112    -0.1614735596360579
 113     0.0000216731973237
 114    -0.0000000031894854
 115     0.0000000146252578
 116     0.0000196017530452
 117     0.1276397993174716
 118     0.0000136637273153
 119    -0.0008718795466528
 120    -0.2184352052246244
 121     0.0000106228818013
 122    -0.0000000069837633
 123    -0.0000000911709283
 124     0.0000290328706903
 125     0.0003021770050587
 126     0.0000890926705643
 127    -0.0000731946935773
 128    -0.0000199590335745
 129     0.0003035747562069
 130     0.0000890480191781
 131    -0.0000731842327626
 132    -0.0000199089485679
 133    -0.0011459201457104
 134     0.0004176732255982
 135     0.0000108013224810
 136     0.0000041683981979
 137    -0.0011483051140995
 138     0.0004243734532473
 139     0.0000108114412066
 140     0.0000041684827821
 141     0.0100095204806275
 142    -0.0024354925962509
 143    -0.0000022082962677
 144    -0.0000010431788685
 145     0.0100527653442004
 146    -0.0025082560761228
 147    -0.0000022039976801
 148    -0.0000010506822531
 149     0.0000002289807890
 150    -0.0000000743159506
 151     0.0000000003563837
 152    -0.0000000004756194
 153    -0.0000025556123422
 154     0.0000373669340264
 155     0.0000000035427896
 156     0.0000006257045057
 157     0.0000780306839314
 158     0.0000030586684358
 159    -0.0000007364987639
 160    -0.0000052926151379
 161     0.0000008559434057
 162    -0.0000048958085790
 163    -0.0000191538956053
 164     0.0000100085036718
 165    -0.0000054787509463
 166     0.0000204310205394
 167    -0.0000061981598789
 168     0.0000013237372239
 169     0.0000000000554875
 170    -0.0000000008258345
 171    -0.0000047627169705
 172    -0.0000210367265598
 173     0.0000000014035313
 174     0.0000138528198141
 175     0.0000211930548215
 176     0.0000030582656458
 177    -0.0000007351895062
 178     0.0000052920331633
 179    -0.0000008555796813
 180    -0.0000048961979907
 181    -0.0000191427628039
 182    -0.0000099978746240
 183    -0.0000054752694141
 184     0.0000204259452903
 Sym= 182A
 Ene= 1.274544
 Spin= Alpha
 Occup= 2.000000
  1     0.0000030398111224
  2     0.0000007304889248
  3     0.0000052602655385
  4     0.0000008504386095
  5     0.0000049001068190
  6     0.0000188864047717
  7     0.0000099720941445
  8     0.0000054638299678
  9     0.0000203861456327
 10    -0.0000061605868034
 11    -0.0000013142874620
 12    -0.0000000000144973
 13    -0.0000000001529797
 14     0.0000047688154299
 15     0.0000207555290978
 16     0.0000000002427759
 17    -0.0000137970844011
 18     0.0000211470283297
 19     0.0000030397435221
 20     0.0000007302456488
 21    -0.0000052601742170
 22    -0.0000008503702391
 23     0.0000049001869087
 24     0.0000188844385901
 25    -0.0000099701326322
 26     0.0000054631697188
 27     0.0000203854466106
 28     0.0000002259278235
 29     0.0000000732591082
 30    -0.0000000000614456
 31    -0.0000000000993888
 32     0.0000011413413794
 33    -0.0000385449936525
 34     0.0000000005785025
 35    -0.0000006184085260
 36     0.0000758604826695
 37     0.0000473653716743
 38     0.0000000393369834
 39    -0.0000000011973556
 40     0.0002196069993154
 41     0.0010623254844720
 42    -0.0000002813904422
 43    -0.0000011265360580
 44     0.0017653938862476
 45     0.0000590411604900
 46     0.0000000073484622
 47    -0.0000000124266399
 48     0.0000864365105896
 49    -0.0000011200469304
 50     0.0000018051448291
 51     0.0000031487041182
 52     0.0036327182356782
 53    -0.0002588191686061
 54    -0.0000002309637013
 55     0.0001492965536411
 56    -0.0002893987980962
 57     0.0002231905699859
 58     0.0000080904827874
 59    -0.0004249618932052
 60    -0.0004761916766905
 61    -0.0002588324458267
 62     0.0000001420085391
 63    -0.0001492062695781
 64    -0.0002892975923957
 65     0.0002220865165084
 66    -0.0000083710507404
 67     0.0004247520158269
 68    -0.0004766632007963
 69     0.0000108707054859
 70     0.0000090266843319
 71    -0.0000130157667119
 72    -0.0000240933095276
 73    -0.0054473054946054
 74     0.0008875182872814
 75     0.0011599997297277
 76    -0.0060463159783611
 77     0.0000108688662928
 78    -0.0000090313430027
 79     0.0000130252858565
 80    -0.0000240868552310
 81    -0.0054523300077058
 82    -0.0008789176534627
 83    -0.0011517831578644
 84    -0.0060491193694517
 85    -0.0000125341958019
 86    -0.0000033479996191
 87     0.0000046142055482
 88    -0.0000145917409856
 89     0.0013937777113485
 90    -0.0039625836713507
 91    -0.0051859861816250
 92    -0.0109640710036851
 93    -0.0000125284434714
 94     0.0000033471744283
 95    -0.0000046065758567
 96    -0.0000145935496456
 97     0.0013506227245357
 98     0.0039454954770627
 99     0.0051645504047546
 100    -0.0109828801544641
 101    -0.0000015553565261
 102    -0.0000000016857416
 103     0.0000000014742847
 104     0.0000123505065175
 105     0.0388533206429194
 106    -0.0000177009068740
 107    -0.0000378046913115
 108     0.0413487479729625
 109    -0.0000078319287785
 110    -0.0000000003240416
 111    -0.0000000128300965
 112     0.0000149018725123
 113     0.1310597060738206
 114    -0.0000212036060063
 115     0.0001270249723733
 116     0.1573814979797449
 117    -0.0000172983065761
 118    -0.0000000011134999
 119     0.0000000935490314
 120     0.0000184360909083
 121     0.1322944466032605
 122    -0.0000518419213230
 123    -0.0008382808286353
 124     0.2153465277318802
 125    -0.0000753453958531
 126    -0.0000198070363846
 127     0.0003245122449740
 128     0.0000901789073031
 129    -0.0000753093600394
 130    -0.0000197535450567
 131     0.0003258542711409
 132     0.0000901657656697
 133     0.0000097686832665
 134     0.0000037489445459
 135    -0.0013461418665376
 136     0.0003728285678146
 137     0.0000097770761269
 138     0.0000037508237817
 139    -0.0013474446522816
 140     0.0003798510104265
 141    -0.0000035586147595
 142    -0.0000002707922884
 143     0.0103866546477585
 144    -0.0024287630375006
 145    -0.0000035634117108
 146    -0.0000002629584791
 147     0.0104286706664836
 148    -0.0024997971736809
 149     0.0020836075001341
 150    -0.0006739322878661
 151     0.0000038382884467
 152    -0.0000038940348645
 153    -0.0166006802634292
 154     0.3510139537169326
 155     0.0000292738955698
 156     0.0056974875932004
 157     0.7103843519027023
 158     0.0281471369257628
 159    -0.0067631411995899
 160    -0.0487069581276343
 161     0.0078939813674981
 162    -0.0451984177261291
 163    -0.1755455844552468
 164     0.0922388171391021
 165    -0.0505549476208113
 166     0.1883229068700731
 167    -0.0570314062760219
 168     0.0121673139849514
 169     0.0000004350333500
 170    -0.0000072009461443
 171    -0.0439921652539939
 172    -0.1926444247056002
 173     0.0000124075263989
 174     0.1274353175352864
 175     0.1952750596570880
 176     0.0281436618157579
 177    -0.0067517199697620
 178     0.0487018515787770
 179    -0.0078907994865933
 180    -0.0452018889240973
 181    -0.1754487132149889
 182    -0.0921459183085390
 183    -0.0505246406689458
 184     0.1882790926655321
 Sym= 183A
 Ene= 1.668894
 Spin= Alpha
 Occup= 2.000000
  1     0.0111830292197200
  2     0.0025381634439979
  3     0.0193769802235034
  4     0.0034524768999708
  5     0.0184363746686825
  6     0.0647315876721840
  7     0.0374768830510932
  8     0.0212996368689804
  9     0.0747096175316765
 10    -0.0225615325557827
 11    -0.0047302025241912
 12     0.0000000799226678
 13    -0.0000000717526756
 14     0.0181981857078880
 15     0.0684623498235504
 16     0.0000003766959822
 17    -0.0487608608110040
 18     0.0765795796889291
 19     0.0111833577615364
 20     0.0025380550936228
 21    -0.0193773750200174
 22    -0.0034524547774227
 23     0.0184369422853727
 24     0.0647338119074063
 25    -0.0374760292786167
 26     0.0212996500058036
 27     0.0747163248924537
 28     0.0005071280577492
 29     0.0001340818064982
 30    -0.0000017870748877
 31    -0.0000007552726217
 32    -0.0487121384017146
 33    -0.1875171751753027
 34    -0.0000062254559876
 35    -0.0013965800737721
 36     0.2283889420952914
 37     0.0020042675208522
 38    -0.0000005318847829
 39     0.0000002577882488
 40    -0.0024765098872866
 41    -0.0000074191915173
 42    -0.0000000219737598
 43    -0.0000000151893986
 44    -0.0001338442865777
 45    -0.0004205082035272
 46     0.0000002047807476
 47     0.0000002625121655
 48    -0.0065550663112837
 49     0.0000399121786357
 50    -0.0000000012204506
 51    -0.0000000019617023
 52    -0.0000486074872044
 53     0.0002503090147348
 54     0.0000681207481609
 55    -0.0002646134946145
 56     0.0005931666655689
 57    -0.0002650992216368
 58    -0.0000129781901573
 59     0.0000310014414637
 60     0.0002738076667507
 61     0.0002504968051414
 62    -0.0000679340198739
 63     0.0002647869646606
 64     0.0005930729801496
 65    -0.0002650658824778
 66     0.0000130827240080
 67    -0.0000310301821416
 68     0.0002737771386232
 69    -0.0128937961331149
 70    -0.0005507808742316
 71     0.0007740128820426
 72     0.0131547905221319
 73     0.0000040905649853
 74    -0.0000012093067259
 75    -0.0000046649439077
 76     0.0000111035858992
 77    -0.0128933455977293
 78     0.0005535870442261
 79    -0.0007818422816277
 80     0.0131546310815502
 81     0.0000040930160598
 82     0.0000012093781146
 83     0.0000046665097961
 84     0.0000111017929572
 85     0.0095790956961309
 86     0.0112330966671002
 87    -0.0147584570864809
 88     0.0311996078452091
 89    -0.0000046621858455
 90    -0.0000008975993708
 91    -0.0000006109472258
 92     0.0000029699798832
 93     0.0095915615486387
 94    -0.0112421281878096
 95     0.0147493167379188
 96     0.0312023369753472
 97    -0.0000046620229795
 98     0.0000008972664869
 99     0.0000006120906473
 100     0.0000029703052432
 101     0.1524218055857574
 102     0.0000107049948114
 103     0.0000587820771604
 104    -0.1683865426117054
 105     0.0000126868013326
 106    -0.0000000009076410
 107     0.0000000022537859
 108     0.0000114652520215
 109     0.2916770738885314
 110     0.0000423812212905
 111     0.0000476032792026
 112    -0.5569398489191243
 113     0.0000253154267016
 114    -0.0000000113066548
 115     0.0000000080385083
 116     0.0000458479061638
 117    -0.4870175994089478
 118     0.0000291643318912
 119     0.0002301328097300
 120    -0.4281635871569156
 121    -0.0000406270918506
 122    -0.0000000097628528
 123     0.0000000242955614
 124     0.0000359289156371
 125     0.0000166660486934
 126     0.0002143802135482
 127     0.0000071401963190
 128    -0.0000102372784206
 129     0.0000164557302213
 130     0.0002146171771100
 131     0.0000071468750539
 132    -0.0000102542351334
 133     0.0003604000296670
 134     0.0001611864146130
 135    -0.0000014481268608
 136     0.0000042434078356
 137     0.0003606997914012
 138     0.0001593988530853
 139    -0.0000014509727720
 140     0.0000042419691980
 141     0.0134155568197988
 142     0.0114443771405127
 143     0.0000013086943639
 144     0.0000007871013932
 145     0.0134048204790622
 146     0.0114635502288654
 147     0.0000013078627256
 148     0.0000007885458244
 149    -0.0000000417439801
 150     0.0000000111541978
 151    -0.0000000007110825
 152     0.0000000000124209
 153    -0.0000040977726610
 154    -0.0000156487295776
 155     0.0000000016344105
 156    -0.0000001168701808
 157    -0.0000189348295577
 158    -0.0000009288068574
 159     0.0000002108055028
 160     0.0000016093391178
 161    -0.0000002868494946
 162     0.0000015323985904
 163     0.0000053691528315
 164    -0.0000031120119819
 165     0.0000017688255768
 166    -0.0000062059247556
 167     0.0000018737575940
 168    -0.0000003928656660
 169     0.0000000000425369
 170     0.0000000000226765
 171     0.0000015127165517
 172     0.0000056780592600
 173    -0.0000000002090880
 174    -0.0000040480179056
 175    -0.0000063610429837
 176    -0.0000009288688847
 177     0.0000002107688196
 178    -0.0000016093622208
 179     0.0000002868392478
 180     0.0000015325379122
 181     0.0000053694013435
 182     0.0000031116391019
 183     0.0000017688782306
 184    -0.0000062068427448
 Sym= 184A
 Ene= 1.684641
 Spin= Alpha
 Occup= 2.000000
  1    -0.0000008579809291
  2    -0.0000001945910242
  3    -0.0000014866645250
  4    -0.0000002654871156
  5    -0.0000014130066987
  6    -0.0000049653089953
  7    -0.0000028753382060
  8    -0.0000016351841659
  9    -0.0000057253674804
 10     0.0000017308072932
 11     0.0000003629044733
 12    -0.0000000000039247
 13     0.0000000000074608
 14    -0.0000013950799394
 15    -0.0000052470381869
 16    -0.0000000000204330
 17     0.0000037367211126
 18    -0.0000058675071080
 19    -0.0000008580122099
 20    -0.0000001945800986
 21     0.0000014867096970
 22     0.0000002654849010
 23    -0.0000014130583993
 24    -0.0000049655252638
 25     0.0000028752614534
 26    -0.0000016351694354
 27    -0.0000057260724689
 28    -0.0000000384322029
 29    -0.0000000100860258
 30     0.0000000001247741
 31     0.0000000000839131
 32     0.0000037674216853
 33     0.0000143916434746
 34     0.0000000005508291
 35     0.0000001058424855
 36    -0.0000175150627164
 37    -0.0000078742799845
 38     0.0000000260507316
 39    -0.0000000066279136
 40     0.0001343325760115
 41     0.0020803051649450
 42     0.0000003957171697
 43     0.0000002087422768
 44     0.0025674398221502
 45     0.0000396064002864
 46     0.0000000034453003
 47    -0.0000000022682509
 48     0.0000486915629790
 49    -0.0003859354450742
 50    -0.0000001901976375
 51     0.0000006715111861
 52     0.0068634443785714
 53    -0.0002697503914341
 54     0.0000131329693873
 55     0.0000301453785648
 56    -0.0002781444428591
 57     0.0002553847571544
 58    -0.0000693027602508
 59    -0.0002728421240172
 60    -0.0006081637258325
 61    -0.0002697521839203
 62    -0.0000132536133995
 63    -0.0000301857527428
 64    -0.0002781409695245
 65     0.0002554941798802
 66     0.0000691798824820
 67     0.0002728365155002
 68    -0.0006081939550431
 69     0.0000059150300168
 70     0.0000011095441097
 71    -0.0000045413978642
 72    -0.0000127504101770
 73    -0.0134263827773650
 74     0.0006549425280058
 75     0.0009114678599951
 76    -0.0137427221815983
 77     0.0000059181885441
 78    -0.0000011134673970
 79     0.0000045460259474
 80    -0.0000127464050817
 81    -0.0134261554245024
 82    -0.0006546223264787
 83    -0.0009161559819488
 84    -0.0137428465329735
 85    -0.0000058997068910
 86    -0.0000008733416794
 87     0.0000017115707121
 88    -0.0000077054737488
 89     0.0099459655869533
 90    -0.0116133784281338
 91    -0.0152588324758374
 92    -0.0321836493233545
 93    -0.0000059001060194
 94     0.0000008747241092
 95    -0.0000017086328813
 96    -0.0000077056025099
 97     0.0099508647141018
 98     0.0116185670611005
 99     0.0152502207665957
 100    -0.0321877403779955
 101    -0.0000120943397320
 102    -0.0000000009481870
 103    -0.0000000051680153
 104     0.0000157107577751
 105     0.1540658886612418
 106    -0.0000146374333157
 107     0.0000313168896102
 108     0.1708615391468215
 109    -0.0000219333570213
 110    -0.0000000033997120
 111    -0.0000000039562030
 112     0.0000442820935369
 113     0.2922362854204082
 114    -0.0001370760827713
 115     0.0000985444461139
 116     0.5596553977489933
 117     0.0000380015323684
 118    -0.0000000022791194
 119    -0.0000000174377802
 120     0.0000333724891603
 121    -0.4863743187981401
 122    -0.0001172299363850
 123     0.0002847315029884
 124     0.4296395209647188
 125     0.0000078247034198
 126    -0.0000101351799335
 127     0.0000194808130624
 128     0.0002176490341081
 129     0.0000078321160681
 130    -0.0000101455556101
 131     0.0000192418581464
 132     0.0002177963994394
 133    -0.0000017419586996
 134     0.0000041491661167
 135     0.0002847522104244
 136     0.0001525989076038
 137    -0.0000017429499462
 138     0.0000041507638996
 139     0.0002858283295277
 140     0.0001513502413173
 141    -0.0000008376421049
 142    -0.0000010688531041
 143     0.0139223099576643
 144     0.0116486867392693
 145    -0.0000008368428491
 146    -0.0000010705846892
 147     0.0139131150653919
 148     0.0116662400350102
 149    -0.0004850420774013
 150     0.0001287104890535
 151    -0.0000083162244933
 152     0.0000004358862482
 153    -0.0486184422142714
 154    -0.1842155671131264
 155     0.0000204493946564
 156    -0.0013587677439841
 157    -0.2226973255971509
 158    -0.0109293811614673
 159     0.0024787791293608
 160     0.0189376700198052
 161    -0.0033831002037708
 162     0.0180135321566520
 163     0.0631650078259918
 164    -0.0366199561759906
 165     0.0208271437419593
 166    -0.0729435215016324
 167     0.0220468357296483
 168    -0.0046228599223036
 169     0.0000004828029942
 170     0.0000002715850128
 171     0.0177863578601588
 172     0.0667431905880161
 173    -0.0000023620236478
 174    -0.0475792224974469
 175    -0.0747521997319496
 176    -0.0109302066971824
 177     0.0024783462101036
 178    -0.0189381423169149
 179     0.0033829831906078
 180     0.0180152866444568
 181     0.0631688318784975
 182     0.0366156734401317
 183     0.0208276964467111
 184    -0.0729568725570764
