[Molden Format]
[Title]
[5D]
[Atoms] Angs
Au  1     79    2.88375798  3.32987696  8.24102644  
Au  2     79    4.32563794  5.82728496  8.24102644  
Au  3     79    5.76751697  3.32987696  8.24102644  
Au  4     79    4.32563794  4.16234599  10.59560542 
H   5     1     3.48663794  6.69034599  10.92860542 
H   6     1     5.26063794  6.55034599  10.98160542 
H   7     1     2.30563794  7.03134599  12.95460542 
H   8     1     6.26263794  5.38334599  13.04260542 
H   9     1     2.31763794  7.20434599  15.39760542 
H   10    1     6.24663794  5.45134599  15.48960542 
H   11    1     6.44763793  6.47134599  17.25760542 
H   12    1     2.14763794  6.39834599  17.30860542 
H   13    1     6.47863794  6.39434599  19.68060542 
H   14    1     2.17963794  6.47734598  19.73060542 
H   15    1     2.37963794  5.45634599  21.50160542 
H   16    1     6.31163793  7.20534599  21.58860542 
H   17    1     2.36663793  5.38834599  23.94860541 
H   18    1     6.32563794  7.03234599  24.03060542 
H   19    1     3.37163794  6.54534599  26.00860542 
H   20    1     5.14563794  6.69534598  26.05860541 
C   21    6     4.32563794  6.17534599  11.38260542 
C   22    6     4.29263793  6.21234599  12.83560542 
C   23    6     3.17163794  6.69534598  13.51560542 
C   24    6     5.40063794  5.77934599  13.56960542 
C   25    6     3.17763794  6.78034599  14.89260542 
C   26    6     5.39163793  5.83134599  14.94260542 
C   27    6     4.28563793  6.34834599  15.62960542 
C   28    6     4.29563793  6.41034599  17.08960542 
C   29    6     5.50463794  6.43634599  17.79160542 
C   30    6     3.10363794  6.42234599  17.81860542 
C   31    6     5.52263794  6.42034599  19.16960542 
C   32    6     3.12163794  6.43934599  19.19660542 
C   33    6     4.33063793  6.41234599  19.89960542 
C   34    6     4.34163794  6.35134599  21.35860542 
C   35    6     3.23563794  5.83634598  22.04660542 
C   36    6     5.45063794  6.78234599  22.09360542 
C   37    6     3.22863794  5.78334599  23.42060542 
C   38    6     5.45963794  6.69734599  23.47060542 
C   39    6     4.33863793  6.21534599  24.15260542 
C   40    6     4.30863793  6.17634598  25.60560542 
Au  41    79    4.32563794  4.16234599  26.38913709 
Au  42    79    5.76751697  3.32987696  28.74371607 
Au  43    79    4.32563794  5.82728496  28.74371607 
Au  44    79    2.88375798  3.32987696  28.74371607 
[GTO]
          1 0
 d           4   1.0000000000000000
   4.1122701249566029      -0.47332494084401033
  0.80618503785873696       0.44453585425802272
  0.44619161658050349       0.22009304110035216
  0.25552080427598067        1.7993341579764486E-002
 s           6   1.0000000000000000
   3.1357416824854494        7.6487877799347858E-003
   1.4695410569471776        5.0287489045723770E-002
  0.42917072702413200      -0.28573460385982991
  0.26896214478566322       -6.0418061133577304E-002
  0.16130109238815588       0.24171496990925084
  0.10196415776492572        4.6586097542082996E-002
 p           6   1.0000000000000000
   2.0508146749125000        9.7346018232745031E-003
  0.42724624910625003       -6.3165011496547019E-002
  0.25001928314999999       -5.7110495203722841E-002
  0.14045633395499998        5.7388149027348262E-002
   9.0689982652500001E-002   4.7898819711647861E-002
   5.7643027955625002E-002   4.3945147119338543E-003

          2 0
 d           4   1.0000000000000000
   4.1122701249566029      -0.47332494084401033
  0.80618503785873696       0.44453585425802272
  0.44619161658050349       0.22009304110035216
  0.25552080427598067        1.7993341579764486E-002
 s           6   1.0000000000000000
   3.1357416824854494        7.6487877799347858E-003
   1.4695410569471776        5.0287489045723770E-002
  0.42917072702413200      -0.28573460385982991
  0.26896214478566322       -6.0418061133577304E-002
  0.16130109238815588       0.24171496990925084
  0.10196415776492572        4.6586097542082996E-002
 p           6   1.0000000000000000
   2.0508146749125000        9.7346018232745031E-003
  0.42724624910625003       -6.3165011496547019E-002
  0.25001928314999999       -5.7110495203722841E-002
  0.14045633395499998        5.7388149027348262E-002
   9.0689982652500001E-002   4.7898819711647861E-002
   5.7643027955625002E-002   4.3945147119338543E-003

          3 0
 d           4   1.0000000000000000
   4.1122701249566029      -0.47332494084401033
  0.80618503785873696       0.44453585425802272
  0.44619161658050349       0.22009304110035216
  0.25552080427598067        1.7993341579764486E-002
 s           6   1.0000000000000000
   3.1357416824854494        7.6487877799347858E-003
   1.4695410569471776        5.0287489045723770E-002
  0.42917072702413200      -0.28573460385982991
  0.26896214478566322       -6.0418061133577304E-002
  0.16130109238815588       0.24171496990925084
  0.10196415776492572        4.6586097542082996E-002
 p           6   1.0000000000000000
   2.0508146749125000        9.7346018232745031E-003
  0.42724624910625003       -6.3165011496547019E-002
  0.25001928314999999       -5.7110495203722841E-002
  0.14045633395499998        5.7388149027348262E-002
   9.0689982652500001E-002   4.7898819711647861E-002
   5.7643027955625002E-002   4.3945147119338543E-003

          4 0
 d           4   1.0000000000000000
   4.1122701249566029      -0.47332494084401033
  0.80618503785873696       0.44453585425802272
  0.44619161658050349       0.22009304110035216
  0.25552080427598067        1.7993341579764486E-002
 s           6   1.0000000000000000
   3.1357416824854494        7.6487877799347858E-003
   1.4695410569471776        5.0287489045723770E-002
  0.42917072702413200      -0.28573460385982991
  0.26896214478566322       -6.0418061133577304E-002
  0.16130109238815588       0.24171496990925084
  0.10196415776492572        4.6586097542082996E-002
 p           6   1.0000000000000000
   2.0508146749125000        9.7346018232745031E-003
  0.42724624910625003       -6.3165011496547019E-002
  0.25001928314999999       -5.7110495203722841E-002
  0.14045633395499998        5.7388149027348262E-002
   9.0689982652500001E-002   4.7898819711647861E-002
   5.7643027955625002E-002   4.3945147119338543E-003

          5 0
 s           4   1.0000000000000000
   7.6119972070599680       0.18536103626168826
   1.3929017058802009       0.23771678223106302
  0.38696334625048251       0.18632205597323881
  0.12842965592697322        4.4589693726254674E-002
 s           7   1.0000000000000000
   10.256286070314902       -1.3186544678254319
  0.62279653258753898        1.6038777007695870
  0.23910076678539138       0.60132301017728140
   7.6119972070599680      -0.98090431986331261
   1.3929017058802009       -1.2579635035340533
  0.38696334625048251      -0.98598989990507979
  0.12842965592697322      -0.23596233641959516

          6 0
 s           4   1.0000000000000000
   7.6119972070599680       0.18536103626168826
   1.3929017058802009       0.23771678223106302
  0.38696334625048251       0.18632205597323881
  0.12842965592697322        4.4589693726254674E-002
 s           7   1.0000000000000000
   10.256286070314902       -1.3186544678254319
  0.62279653258753898        1.6038777007695870
  0.23910076678539138       0.60132301017728140
   7.6119972070599680      -0.98090431986331261
   1.3929017058802009       -1.2579635035340533
  0.38696334625048251      -0.98598989990507979
  0.12842965592697322      -0.23596233641959516

          7 0
 s           4   1.0000000000000000
   7.6119972070599680       0.18536103626168826
   1.3929017058802009       0.23771678223106302
  0.38696334625048251       0.18632205597323881
  0.12842965592697322        4.4589693726254674E-002
 s           7   1.0000000000000000
   10.256286070314902       -1.3186544678254319
  0.62279653258753898        1.6038777007695870
  0.23910076678539138       0.60132301017728140
   7.6119972070599680      -0.98090431986331261
   1.3929017058802009       -1.2579635035340533
  0.38696334625048251      -0.98598989990507979
  0.12842965592697322      -0.23596233641959516

          8 0
 s           4   1.0000000000000000
   7.6119972070599680       0.18536103626168826
   1.3929017058802009       0.23771678223106302
  0.38696334625048251       0.18632205597323881
  0.12842965592697322        4.4589693726254674E-002
 s           7   1.0000000000000000
   10.256286070314902       -1.3186544678254319
  0.62279653258753898        1.6038777007695870
  0.23910076678539138       0.60132301017728140
   7.6119972070599680      -0.98090431986331261
   1.3929017058802009       -1.2579635035340533
  0.38696334625048251      -0.98598989990507979
  0.12842965592697322      -0.23596233641959516

          9 0
 s           4   1.0000000000000000
   7.6119972070599680       0.18536103626168826
   1.3929017058802009       0.23771678223106302
  0.38696334625048251       0.18632205597323881
  0.12842965592697322        4.4589693726254674E-002
 s           7   1.0000000000000000
   10.256286070314902       -1.3186544678254319
  0.62279653258753898        1.6038777007695870
  0.23910076678539138       0.60132301017728140
   7.6119972070599680      -0.98090431986331261
   1.3929017058802009       -1.2579635035340533
  0.38696334625048251      -0.98598989990507979
  0.12842965592697322      -0.23596233641959516

          10 0
 s           4   1.0000000000000000
   7.6119972070599680       0.18536103626168826
   1.3929017058802009       0.23771678223106302
  0.38696334625048251       0.18632205597323881
  0.12842965592697322        4.4589693726254674E-002
 s           7   1.0000000000000000
   10.256286070314902       -1.3186544678254319
  0.62279653258753898        1.6038777007695870
  0.23910076678539138       0.60132301017728140
   7.6119972070599680      -0.98090431986331261
   1.3929017058802009       -1.2579635035340533
  0.38696334625048251      -0.98598989990507979
  0.12842965592697322      -0.23596233641959516

          11 0
 s           4   1.0000000000000000
   7.6119972070599680       0.18536103626168826
   1.3929017058802009       0.23771678223106302
  0.38696334625048251       0.18632205597323881
  0.12842965592697322        4.4589693726254674E-002
 s           7   1.0000000000000000
   10.256286070314902       -1.3186544678254319
  0.62279653258753898        1.6038777007695870
  0.23910076678539138       0.60132301017728140
   7.6119972070599680      -0.98090431986331261
   1.3929017058802009       -1.2579635035340533
  0.38696334625048251      -0.98598989990507979
  0.12842965592697322      -0.23596233641959516

          12 0
 s           4   1.0000000000000000
   7.6119972070599680       0.18536103626168826
   1.3929017058802009       0.23771678223106302
  0.38696334625048251       0.18632205597323881
  0.12842965592697322        4.4589693726254674E-002
 s           7   1.0000000000000000
   10.256286070314902       -1.3186544678254319
  0.62279653258753898        1.6038777007695870
  0.23910076678539138       0.60132301017728140
   7.6119972070599680      -0.98090431986331261
   1.3929017058802009       -1.2579635035340533
  0.38696334625048251      -0.98598989990507979
  0.12842965592697322      -0.23596233641959516

          13 0
 s           4   1.0000000000000000
   7.6119972070599680       0.18536103626168826
   1.3929017058802009       0.23771678223106302
  0.38696334625048251       0.18632205597323881
  0.12842965592697322        4.4589693726254674E-002
 s           7   1.0000000000000000
   10.256286070314902       -1.3186544678254319
  0.62279653258753898        1.6038777007695870
  0.23910076678539138       0.60132301017728140
   7.6119972070599680      -0.98090431986331261
   1.3929017058802009       -1.2579635035340533
  0.38696334625048251      -0.98598989990507979
  0.12842965592697322      -0.23596233641959516

          14 0
 s           4   1.0000000000000000
   7.6119972070599680       0.18536103626168826
   1.3929017058802009       0.23771678223106302
  0.38696334625048251       0.18632205597323881
  0.12842965592697322        4.4589693726254674E-002
 s           7   1.0000000000000000
   10.256286070314902       -1.3186544678254319
  0.62279653258753898        1.6038777007695870
  0.23910076678539138       0.60132301017728140
   7.6119972070599680      -0.98090431986331261
   1.3929017058802009       -1.2579635035340533
  0.38696334625048251      -0.98598989990507979
  0.12842965592697322      -0.23596233641959516

          15 0
 s           4   1.0000000000000000
   7.6119972070599680       0.18536103626168826
   1.3929017058802009       0.23771678223106302
  0.38696334625048251       0.18632205597323881
  0.12842965592697322        4.4589693726254674E-002
 s           7   1.0000000000000000
   10.256286070314902       -1.3186544678254319
  0.62279653258753898        1.6038777007695870
  0.23910076678539138       0.60132301017728140
   7.6119972070599680      -0.98090431986331261
   1.3929017058802009       -1.2579635035340533
  0.38696334625048251      -0.98598989990507979
  0.12842965592697322      -0.23596233641959516

          16 0
 s           4   1.0000000000000000
   7.6119972070599680       0.18536103626168826
   1.3929017058802009       0.23771678223106302
  0.38696334625048251       0.18632205597323881
  0.12842965592697322        4.4589693726254674E-002
 s           7   1.0000000000000000
   10.256286070314902       -1.3186544678254319
  0.62279653258753898        1.6038777007695870
  0.23910076678539138       0.60132301017728140
   7.6119972070599680      -0.98090431986331261
   1.3929017058802009       -1.2579635035340533
  0.38696334625048251      -0.98598989990507979
  0.12842965592697322      -0.23596233641959516

          17 0
 s           4   1.0000000000000000
   7.6119972070599680       0.18536103626168826
   1.3929017058802009       0.23771678223106302
  0.38696334625048251       0.18632205597323881
  0.12842965592697322        4.4589693726254674E-002
 s           7   1.0000000000000000
   10.256286070314902       -1.3186544678254319
  0.62279653258753898        1.6038777007695870
  0.23910076678539138       0.60132301017728140
   7.6119972070599680      -0.98090431986331261
   1.3929017058802009       -1.2579635035340533
  0.38696334625048251      -0.98598989990507979
  0.12842965592697322      -0.23596233641959516

          18 0
 s           4   1.0000000000000000
   7.6119972070599680       0.18536103626168826
   1.3929017058802009       0.23771678223106302
  0.38696334625048251       0.18632205597323881
  0.12842965592697322        4.4589693726254674E-002
 s           7   1.0000000000000000
   10.256286070314902       -1.3186544678254319
  0.62279653258753898        1.6038777007695870
  0.23910076678539138       0.60132301017728140
   7.6119972070599680      -0.98090431986331261
   1.3929017058802009       -1.2579635035340533
  0.38696334625048251      -0.98598989990507979
  0.12842965592697322      -0.23596233641959516

          19 0
 s           4   1.0000000000000000
   7.6119972070599680       0.18536103626168826
   1.3929017058802009       0.23771678223106302
  0.38696334625048251       0.18632205597323881
  0.12842965592697322        4.4589693726254674E-002
 s           7   1.0000000000000000
   10.256286070314902       -1.3186544678254319
  0.62279653258753898        1.6038777007695870
  0.23910076678539138       0.60132301017728140
   7.6119972070599680      -0.98090431986331261
   1.3929017058802009       -1.2579635035340533
  0.38696334625048251      -0.98598989990507979
  0.12842965592697322      -0.23596233641959516

          20 0
 s           4   1.0000000000000000
   7.6119972070599680       0.18536103626168826
   1.3929017058802009       0.23771678223106302
  0.38696334625048251       0.18632205597323881
  0.12842965592697322        4.4589693726254674E-002
 s           7   1.0000000000000000
   10.256286070314902       -1.3186544678254319
  0.62279653258753898        1.6038777007695870
  0.23910076678539138       0.60132301017728140
   7.6119972070599680      -0.98090431986331261
   1.3929017058802009       -1.2579635035340533
  0.38696334625048251      -0.98598989990507979
  0.12842965592697322      -0.23596233641959516

          21 0
 s           6   1.0000000000000000
   106.38971661757030       -9.8009151699919875E-002
   19.510792340428655      -0.13676085979760455
   5.4829535718846767      -0.13152364218142998
  0.78407453403153715       0.19871892812986372
  0.35586124621498083       0.18458182484227953
  0.16970821740424907        3.2280723842753281E-002
 p           6   1.0000000000000000
   19.697346208514816       0.46871300964462981
   5.1366673338425883       0.56702433552910014
   1.8379485147102486       0.57908791780781932
  0.76829761123302320       0.41523341391527901
  0.35131800475041969       0.15469126795368998
  0.16609075699863593        1.5897464808064834E-002

          22 0
 s           6   1.0000000000000000
   106.38971661757030       -9.8009151699919875E-002
   19.510792340428655      -0.13676085979760455
   5.4829535718846767      -0.13152364218142998
  0.78407453403153715       0.19871892812986372
  0.35586124621498083       0.18458182484227953
  0.16970821740424907        3.2280723842753281E-002
 p           6   1.0000000000000000
   19.697346208514816       0.46871300964462981
   5.1366673338425883       0.56702433552910014
   1.8379485147102486       0.57908791780781932
  0.76829761123302320       0.41523341391527901
  0.35131800475041969       0.15469126795368998
  0.16609075699863593        1.5897464808064834E-002

          23 0
 s           6   1.0000000000000000
   106.38971661757030       -9.8009151699919875E-002
   19.510792340428655      -0.13676085979760455
   5.4829535718846767      -0.13152364218142998
  0.78407453403153715       0.19871892812986372
  0.35586124621498083       0.18458182484227953
  0.16970821740424907        3.2280723842753281E-002
 p           6   1.0000000000000000
   19.697346208514816       0.46871300964462981
   5.1366673338425883       0.56702433552910014
   1.8379485147102486       0.57908791780781932
  0.76829761123302320       0.41523341391527901
  0.35131800475041969       0.15469126795368998
  0.16609075699863593        1.5897464808064834E-002

          24 0
 s           6   1.0000000000000000
   106.38971661757030       -9.8009151699919875E-002
   19.510792340428655      -0.13676085979760455
   5.4829535718846767      -0.13152364218142998
  0.78407453403153715       0.19871892812986372
  0.35586124621498083       0.18458182484227953
  0.16970821740424907        3.2280723842753281E-002
 p           6   1.0000000000000000
   19.697346208514816       0.46871300964462981
   5.1366673338425883       0.56702433552910014
   1.8379485147102486       0.57908791780781932
  0.76829761123302320       0.41523341391527901
  0.35131800475041969       0.15469126795368998
  0.16609075699863593        1.5897464808064834E-002

          25 0
 s           6   1.0000000000000000
   106.38971661757030       -9.8009151699919875E-002
   19.510792340428655      -0.13676085979760455
   5.4829535718846767      -0.13152364218142998
  0.78407453403153715       0.19871892812986372
  0.35586124621498083       0.18458182484227953
  0.16970821740424907        3.2280723842753281E-002
 p           6   1.0000000000000000
   19.697346208514816       0.46871300964462981
   5.1366673338425883       0.56702433552910014
   1.8379485147102486       0.57908791780781932
  0.76829761123302320       0.41523341391527901
  0.35131800475041969       0.15469126795368998
  0.16609075699863593        1.5897464808064834E-002

          26 0
 s           6   1.0000000000000000
   106.38971661757030       -9.8009151699919875E-002
   19.510792340428655      -0.13676085979760455
   5.4829535718846767      -0.13152364218142998
  0.78407453403153715       0.19871892812986372
  0.35586124621498083       0.18458182484227953
  0.16970821740424907        3.2280723842753281E-002
 p           6   1.0000000000000000
   19.697346208514816       0.46871300964462981
   5.1366673338425883       0.56702433552910014
   1.8379485147102486       0.57908791780781932
  0.76829761123302320       0.41523341391527901
  0.35131800475041969       0.15469126795368998
  0.16609075699863593        1.5897464808064834E-002

          27 0
 s           6   1.0000000000000000
   106.38971661757030       -9.8009151699919875E-002
   19.510792340428655      -0.13676085979760455
   5.4829535718846767      -0.13152364218142998
  0.78407453403153715       0.19871892812986372
  0.35586124621498083       0.18458182484227953
  0.16970821740424907        3.2280723842753281E-002
 p           6   1.0000000000000000
   19.697346208514816       0.46871300964462981
   5.1366673338425883       0.56702433552910014
   1.8379485147102486       0.57908791780781932
  0.76829761123302320       0.41523341391527901
  0.35131800475041969       0.15469126795368998
  0.16609075699863593        1.5897464808064834E-002

          28 0
 s           6   1.0000000000000000
   106.38971661757030       -9.8009151699919875E-002
   19.510792340428655      -0.13676085979760455
   5.4829535718846767      -0.13152364218142998
  0.78407453403153715       0.19871892812986372
  0.35586124621498083       0.18458182484227953
  0.16970821740424907        3.2280723842753281E-002
 p           6   1.0000000000000000
   19.697346208514816       0.46871300964462981
   5.1366673338425883       0.56702433552910014
   1.8379485147102486       0.57908791780781932
  0.76829761123302320       0.41523341391527901
  0.35131800475041969       0.15469126795368998
  0.16609075699863593        1.5897464808064834E-002

          29 0
 s           6   1.0000000000000000
   106.38971661757030       -9.8009151699919875E-002
   19.510792340428655      -0.13676085979760455
   5.4829535718846767      -0.13152364218142998
  0.78407453403153715       0.19871892812986372
  0.35586124621498083       0.18458182484227953
  0.16970821740424907        3.2280723842753281E-002
 p           6   1.0000000000000000
   19.697346208514816       0.46871300964462981
   5.1366673338425883       0.56702433552910014
   1.8379485147102486       0.57908791780781932
  0.76829761123302320       0.41523341391527901
  0.35131800475041969       0.15469126795368998
  0.16609075699863593        1.5897464808064834E-002

          30 0
 s           6   1.0000000000000000
   106.38971661757030       -9.8009151699919875E-002
   19.510792340428655      -0.13676085979760455
   5.4829535718846767      -0.13152364218142998
  0.78407453403153715       0.19871892812986372
  0.35586124621498083       0.18458182484227953
  0.16970821740424907        3.2280723842753281E-002
 p           6   1.0000000000000000
   19.697346208514816       0.46871300964462981
   5.1366673338425883       0.56702433552910014
   1.8379485147102486       0.57908791780781932
  0.76829761123302320       0.41523341391527901
  0.35131800475041969       0.15469126795368998
  0.16609075699863593        1.5897464808064834E-002

          31 0
 s           6   1.0000000000000000
   106.38971661757030       -9.8009151699919875E-002
   19.510792340428655      -0.13676085979760455
   5.4829535718846767      -0.13152364218142998
  0.78407453403153715       0.19871892812986372
  0.35586124621498083       0.18458182484227953
  0.16970821740424907        3.2280723842753281E-002
 p           6   1.0000000000000000
   19.697346208514816       0.46871300964462981
   5.1366673338425883       0.56702433552910014
   1.8379485147102486       0.57908791780781932
  0.76829761123302320       0.41523341391527901
  0.35131800475041969       0.15469126795368998
  0.16609075699863593        1.5897464808064834E-002

          32 0
 s           6   1.0000000000000000
   106.38971661757030       -9.8009151699919875E-002
   19.510792340428655      -0.13676085979760455
   5.4829535718846767      -0.13152364218142998
  0.78407453403153715       0.19871892812986372
  0.35586124621498083       0.18458182484227953
  0.16970821740424907        3.2280723842753281E-002
 p           6   1.0000000000000000
   19.697346208514816       0.46871300964462981
   5.1366673338425883       0.56702433552910014
   1.8379485147102486       0.57908791780781932
  0.76829761123302320       0.41523341391527901
  0.35131800475041969       0.15469126795368998
  0.16609075699863593        1.5897464808064834E-002

          33 0
 s           6   1.0000000000000000
   106.38971661757030       -9.8009151699919875E-002
   19.510792340428655      -0.13676085979760455
   5.4829535718846767      -0.13152364218142998
  0.78407453403153715       0.19871892812986372
  0.35586124621498083       0.18458182484227953
  0.16970821740424907        3.2280723842753281E-002
 p           6   1.0000000000000000
   19.697346208514816       0.46871300964462981
   5.1366673338425883       0.56702433552910014
   1.8379485147102486       0.57908791780781932
  0.76829761123302320       0.41523341391527901
  0.35131800475041969       0.15469126795368998
  0.16609075699863593        1.5897464808064834E-002

          34 0
 s           6   1.0000000000000000
   106.38971661757030       -9.8009151699919875E-002
   19.510792340428655      -0.13676085979760455
   5.4829535718846767      -0.13152364218142998
  0.78407453403153715       0.19871892812986372
  0.35586124621498083       0.18458182484227953
  0.16970821740424907        3.2280723842753281E-002
 p           6   1.0000000000000000
   19.697346208514816       0.46871300964462981
   5.1366673338425883       0.56702433552910014
   1.8379485147102486       0.57908791780781932
  0.76829761123302320       0.41523341391527901
  0.35131800475041969       0.15469126795368998
  0.16609075699863593        1.5897464808064834E-002

          35 0
 s           6   1.0000000000000000
   106.38971661757030       -9.8009151699919875E-002
   19.510792340428655      -0.13676085979760455
   5.4829535718846767      -0.13152364218142998
  0.78407453403153715       0.19871892812986372
  0.35586124621498083       0.18458182484227953
  0.16970821740424907        3.2280723842753281E-002
 p           6   1.0000000000000000
   19.697346208514816       0.46871300964462981
   5.1366673338425883       0.56702433552910014
   1.8379485147102486       0.57908791780781932
  0.76829761123302320       0.41523341391527901
  0.35131800475041969       0.15469126795368998
  0.16609075699863593        1.5897464808064834E-002

          36 0
 s           6   1.0000000000000000
   106.38971661757030       -9.8009151699919875E-002
   19.510792340428655      -0.13676085979760455
   5.4829535718846767      -0.13152364218142998
  0.78407453403153715       0.19871892812986372
  0.35586124621498083       0.18458182484227953
  0.16970821740424907        3.2280723842753281E-002
 p           6   1.0000000000000000
   19.697346208514816       0.46871300964462981
   5.1366673338425883       0.56702433552910014
   1.8379485147102486       0.57908791780781932
  0.76829761123302320       0.41523341391527901
  0.35131800475041969       0.15469126795368998
  0.16609075699863593        1.5897464808064834E-002

          37 0
 s           6   1.0000000000000000
   106.38971661757030       -9.8009151699919875E-002
   19.510792340428655      -0.13676085979760455
   5.4829535718846767      -0.13152364218142998
  0.78407453403153715       0.19871892812986372
  0.35586124621498083       0.18458182484227953
  0.16970821740424907        3.2280723842753281E-002
 p           6   1.0000000000000000
   19.697346208514816       0.46871300964462981
   5.1366673338425883       0.56702433552910014
   1.8379485147102486       0.57908791780781932
  0.76829761123302320       0.41523341391527901
  0.35131800475041969       0.15469126795368998
  0.16609075699863593        1.5897464808064834E-002

          38 0
 s           6   1.0000000000000000
   106.38971661757030       -9.8009151699919875E-002
   19.510792340428655      -0.13676085979760455
   5.4829535718846767      -0.13152364218142998
  0.78407453403153715       0.19871892812986372
  0.35586124621498083       0.18458182484227953
  0.16970821740424907        3.2280723842753281E-002
 p           6   1.0000000000000000
   19.697346208514816       0.46871300964462981
   5.1366673338425883       0.56702433552910014
   1.8379485147102486       0.57908791780781932
  0.76829761123302320       0.41523341391527901
  0.35131800475041969       0.15469126795368998
  0.16609075699863593        1.5897464808064834E-002

          39 0
 s           6   1.0000000000000000
   106.38971661757030       -9.8009151699919875E-002
   19.510792340428655      -0.13676085979760455
   5.4829535718846767      -0.13152364218142998
  0.78407453403153715       0.19871892812986372
  0.35586124621498083       0.18458182484227953
  0.16970821740424907        3.2280723842753281E-002
 p           6   1.0000000000000000
   19.697346208514816       0.46871300964462981
   5.1366673338425883       0.56702433552910014
   1.8379485147102486       0.57908791780781932
  0.76829761123302320       0.41523341391527901
  0.35131800475041969       0.15469126795368998
  0.16609075699863593        1.5897464808064834E-002

          40 0
 s           6   1.0000000000000000
   106.38971661757030       -9.8009151699919875E-002
   19.510792340428655      -0.13676085979760455
   5.4829535718846767      -0.13152364218142998
  0.78407453403153715       0.19871892812986372
  0.35586124621498083       0.18458182484227953
  0.16970821740424907        3.2280723842753281E-002
 p           6   1.0000000000000000
   19.697346208514816       0.46871300964462981
   5.1366673338425883       0.56702433552910014
   1.8379485147102486       0.57908791780781932
  0.76829761123302320       0.41523341391527901
  0.35131800475041969       0.15469126795368998
  0.16609075699863593        1.5897464808064834E-002

          41 0
 d           4   1.0000000000000000
   4.1122701249566029      -0.47332494084401033
  0.80618503785873696       0.44453585425802272
  0.44619161658050349       0.22009304110035216
  0.25552080427598067        1.7993341579764486E-002
 s           6   1.0000000000000000
   3.1357416824854494        7.6487877799347858E-003
   1.4695410569471776        5.0287489045723770E-002
  0.42917072702413200      -0.28573460385982991
  0.26896214478566322       -6.0418061133577304E-002
  0.16130109238815588       0.24171496990925084
  0.10196415776492572        4.6586097542082996E-002
 p           6   1.0000000000000000
   2.0508146749125000        9.7346018232745031E-003
  0.42724624910625003       -6.3165011496547019E-002
  0.25001928314999999       -5.7110495203722841E-002
  0.14045633395499998        5.7388149027348262E-002
   9.0689982652500001E-002   4.7898819711647861E-002
   5.7643027955625002E-002   4.3945147119338543E-003

          42 0
 d           4   1.0000000000000000
   4.1122701249566029      -0.47332494084401033
  0.80618503785873696       0.44453585425802272
  0.44619161658050349       0.22009304110035216
  0.25552080427598067        1.7993341579764486E-002
 s           6   1.0000000000000000
   3.1357416824854494        7.6487877799347858E-003
   1.4695410569471776        5.0287489045723770E-002
  0.42917072702413200      -0.28573460385982991
  0.26896214478566322       -6.0418061133577304E-002
  0.16130109238815588       0.24171496990925084
  0.10196415776492572        4.6586097542082996E-002
 p           6   1.0000000000000000
   2.0508146749125000        9.7346018232745031E-003
  0.42724624910625003       -6.3165011496547019E-002
  0.25001928314999999       -5.7110495203722841E-002
  0.14045633395499998        5.7388149027348262E-002
   9.0689982652500001E-002   4.7898819711647861E-002
   5.7643027955625002E-002   4.3945147119338543E-003

          43 0
 d           4   1.0000000000000000
   4.1122701249566029      -0.47332494084401033
  0.80618503785873696       0.44453585425802272
  0.44619161658050349       0.22009304110035216
  0.25552080427598067        1.7993341579764486E-002
 s           6   1.0000000000000000
   3.1357416824854494        7.6487877799347858E-003
   1.4695410569471776        5.0287489045723770E-002
  0.42917072702413200      -0.28573460385982991
  0.26896214478566322       -6.0418061133577304E-002
  0.16130109238815588       0.24171496990925084
  0.10196415776492572        4.6586097542082996E-002
 p           6   1.0000000000000000
   2.0508146749125000        9.7346018232745031E-003
  0.42724624910625003       -6.3165011496547019E-002
  0.25001928314999999       -5.7110495203722841E-002
  0.14045633395499998        5.7388149027348262E-002
   9.0689982652500001E-002   4.7898819711647861E-002
   5.7643027955625002E-002   4.3945147119338543E-003

          44 0
 d           4   1.0000000000000000
   4.1122701249566029      -0.47332494084401033
  0.80618503785873696       0.44453585425802272
  0.44619161658050349       0.22009304110035216
  0.25552080427598067        1.7993341579764486E-002
 s           6   1.0000000000000000
   3.1357416824854494        7.6487877799347858E-003
   1.4695410569471776        5.0287489045723770E-002
  0.42917072702413200      -0.28573460385982991
  0.26896214478566322       -6.0418061133577304E-002
  0.16130109238815588       0.24171496990925084
  0.10196415776492572        4.6586097542082996E-002
 p           6   1.0000000000000000
   2.0508146749125000        9.7346018232745031E-003
  0.42724624910625003       -6.3165011496547019E-002
  0.25001928314999999       -5.7110495203722841E-002
  0.14045633395499998        5.7388149027348262E-002
   9.0689982652500001E-002   4.7898819711647861E-002
   5.7643027955625002E-002   4.3945147119338543E-003

[MO]
 Sym= 1A
 Ene= -0.019127
 Spin= Alpha
 Occup= 2.0
  1     0.0226336265325458
  2     0.0995363743462490
  3     0.0067080405047029
  4     0.0711096301048905
  5     0.0567744767076615
  6     0.2582486011819122
  7     0.0205672265524251
  8     0.1110905254933404
  9     0.0283979829087245
 10     0.0560163711989471
 11     0.0641505261994477
 12     0.0031103711307357
 13     0.0066638555061545
 14     0.1376692792367825
 15     0.1221741397875043
 16     0.0060032955984016
 17     0.0764385485025117
 18     0.0302400819258150
 19     0.0233250753673802
 20     0.0922020967153707
 21     0.0062858752491027
 22     0.0722036248694446
 23     0.0494191531949535
 24     0.2779948563121742
 25     0.0126908747537790
 26     0.1089570087711893
 27     0.0363094840122882
 28     0.1041798533424090
 29     0.2655163676731650
 30     0.0006832517868247
 31     0.0109673970698602
 32     0.1676627900387000
 33     0.1927139755504180
 34     0.0149832252957385
 35     0.1667234632727986
 36     0.1551613039808896
 37     0.0662447196362403
 38     0.0020502933422472
 39     0.0761614625286964
 40     0.0077722165572043
 41     0.0011597997856205
 42     0.0150847346710398
 43     0.0019725306323613
 44     0.0051052377148362
 45     0.0133324358717162
 46     0.0001612557851344
 47     0.0013986887656724
 48     0.0048958557656066
 49     0.0035686908238213
 50     0.0033687414938885
 51     0.0040447001075293
 52     0.0049686681335456
 53     0.0086032297581800
 54     0.0022102511017965
 55     0.0067513147780332
 56     0.0015330794406739
 57     0.0024583517641454
 58     0.0014232939721847
 59     0.0032025328851720
 60     0.0008748557483103
 61     0.0032771574433995
 62     0.0014891585390668
 63     0.0038200208041432
 64     0.0029595478514484
 65     0.0187834083345197
 66     0.0029107827478643
 67     0.0130784226233078
 68     0.0016474863577992
 69     0.0908590300358524
 70     0.0348155678573896
 71     0.4172240446005367
 72     0.0970114649503031
 73     0.0332523672592532
 74     0.0373785226898784
 75     0.1451638131422577
 76     0.0515873701769856
 77     0.0201305199618427
 78     0.1107745555703054
 79     0.2077870858527344
 80     0.0363507582266624
 81     0.0198173639858590
 82     0.0957730888673084
 83     0.2181216275050507
 84     0.0050173034141409
 85     0.0144809602645450
 86     0.0335101578133263
 87     0.0652558803211816
 88     0.0248028896357236
 89     0.0032219786973389
 90     0.0243034180939353
 91     0.0502735696355515
 92     0.0079577899867198
 93     0.0026915019174104
 94     0.1073114391840232
 95     0.2501932342332404
 96     0.0141169258085698
 97     0.0022517668745146
 98     0.0134547670307257
 99     0.0649741321287128
 100     0.0010634213622109
 101     0.0137615430821990
 102     0.0166994022208221
 103     0.1194929487434319
 104     0.0127656156190226
 105     0.0166685667770617
 106     0.0133313341604847
 107     0.1193608602242304
 108     0.0118607326475888
 109     0.0041791325391041
 110     0.0051611418906548
 111     0.0378119294903299
 112     0.0075028301487742
 113     0.0042520148412291
 114     0.0052761706996675
 115     0.0382585127194238
 116     0.0067417499070388
 117     0.0011276201005772
 118     0.0047561263447110
 119     0.1352503870575717
 120     0.0051895849827817
 121     0.0005924088019490
 122     0.0212453845290743
 123     0.0554279007092960
 124     0.0032195775371249
 125     0.0072473707173428
 126     0.0311873402900591
 127     0.0501062986664100
 128     0.0067299987402612
 129     0.0063628816819848
 130     0.0324568799572176
 131     0.0547217772350255
 132     0.0057565647275924
 133     0.0044980188010590
 134     0.0195637533507800
 135     0.0435651364086897
 136     0.0022853602446051
 137     0.0040715768638583
 138     0.0222580327004485
 139     0.0414618222363265
 140     0.0080063204308580
 141     0.0072700554490712
 142     0.0248740001303998
 143     0.0689370485463497
 144     0.0121244134659696
 145     0.0211412602273082
 146     0.0072543037027304
 147     0.0802902892336400
 148     0.0219900594226893
 149     0.0352041521893163
 150     0.0524660433716964
 151     0.0082563511993029
 152     0.0031518416773642
 153     0.0463484327536198
 154     0.0944678375578053
 155     0.0077783810016170
 156     0.0296088270265616
 157     0.0339134368560777
 158     0.0262215412611509
 159     0.0132003136981524
 160     0.0383787800724857
 161     0.0104766767839848
 162     0.0229797225133914
 163     0.0143005119653351
 164     0.0127002221643364
 165     0.0033185336581986
 166     0.0275574330734938
 167     0.0678796274567694
 168     0.0266451865801807
 169     0.0156473068477142
 170     0.0076899786406706
 171     0.0259831310013299
 172     0.0026435422344880
 173     0.0117377283035987
 174     0.0113971429305153
 175     0.0266897914694064
 176     0.0265709068083599
 177     0.0138927725167811
 178     0.0353776450733673
 179     0.0113871498209329
 180     0.0179772609809951
 181     0.0346639412033037
 182     0.0039906934158865
 183     0.0036278824559618
 184     0.0344669141254241
