[Molden Format]
[Title]
[5D]
[Atoms] Angs
Au  1     79    2.88375798  3.32987696  8.24102644  
Au  2     79    4.32563794  5.82728496  8.24102644  
Au  3     79    5.76751697  3.32987696  8.24102644  
Au  4     79    4.32563794  4.16234599  10.59560542 
H   5     1     3.48663794  6.69034599  10.92860542 
H   6     1     5.26063794  6.55034599  10.98160542 
H   7     1     2.30563794  7.03134599  12.95460542 
H   8     1     6.26263794  5.38334599  13.04260542 
H   9     1     2.31763794  7.20434599  15.39760542 
H   10    1     6.24663794  5.45134599  15.48960542 
H   11    1     6.44763793  6.47134599  17.25760542 
H   12    1     2.14763794  6.39834599  17.30860542 
H   13    1     6.47863794  6.39434599  19.68060542 
H   14    1     2.17963794  6.47734598  19.73060542 
H   15    1     2.37963794  5.45634599  21.50160542 
H   16    1     6.31163793  7.20534599  21.58860542 
H   17    1     2.36663793  5.38834599  23.94860541 
H   18    1     6.32563794  7.03234599  24.03060542 
H   19    1     3.37163794  6.54534599  26.00860542 
H   20    1     5.14563794  6.69534598  26.05860541 
C   21    6     4.32563794  6.17534599  11.38260542 
C   22    6     4.29263793  6.21234599  12.83560542 
C   23    6     3.17163794  6.69534598  13.51560542 
C   24    6     5.40063794  5.77934599  13.56960542 
C   25    6     3.17763794  6.78034599  14.89260542 
C   26    6     5.39163793  5.83134599  14.94260542 
C   27    6     4.28563793  6.34834599  15.62960542 
C   28    6     4.29563793  6.41034599  17.08960542 
C   29    6     5.50463794  6.43634599  17.79160542 
C   30    6     3.10363794  6.42234599  17.81860542 
C   31    6     5.52263794  6.42034599  19.16960542 
C   32    6     3.12163794  6.43934599  19.19660542 
C   33    6     4.33063793  6.41234599  19.89960542 
C   34    6     4.34163794  6.35134599  21.35860542 
C   35    6     3.23563794  5.83634598  22.04660542 
C   36    6     5.45063794  6.78234599  22.09360542 
C   37    6     3.22863794  5.78334599  23.42060542 
C   38    6     5.45963794  6.69734599  23.47060542 
C   39    6     4.33863793  6.21534599  24.15260542 
C   40    6     4.30863793  6.17634598  25.60560542 
Au  41    79    4.32563794  4.16234599  26.38913709 
Au  42    79    5.76751697  3.32987696  28.74371607 
Au  43    79    4.32563794  5.82728496  28.74371607 
Au  44    79    2.88375798  3.32987696  28.74371607 
[GTO]
          1 0
 d           4   1.0000000000000000
   4.1122701249566029      -0.47332494084401033
  0.80618503785873696       0.44453585425802272
  0.44619161658050349       0.22009304110035216
  0.25552080427598067        1.7993341579764486E-002
 s           6   1.0000000000000000
   3.1357416824854494        7.6487877799347858E-003
   1.4695410569471776        5.0287489045723770E-002
  0.42917072702413200      -0.28573460385982991
  0.26896214478566322       -6.0418061133577304E-002
  0.16130109238815588       0.24171496990925084
  0.10196415776492572        4.6586097542082996E-002
 p           6   1.0000000000000000
   2.0508146749125000        9.7346018232745031E-003
  0.42724624910625003       -6.3165011496547019E-002
  0.25001928314999999       -5.7110495203722841E-002
  0.14045633395499998        5.7388149027348262E-002
   9.0689982652500001E-002   4.7898819711647861E-002
   5.7643027955625002E-002   4.3945147119338543E-003

          2 0
 d           4   1.0000000000000000
   4.1122701249566029      -0.47332494084401033
  0.80618503785873696       0.44453585425802272
  0.44619161658050349       0.22009304110035216
  0.25552080427598067        1.7993341579764486E-002
 s           6   1.0000000000000000
   3.1357416824854494        7.6487877799347858E-003
   1.4695410569471776        5.0287489045723770E-002
  0.42917072702413200      -0.28573460385982991
  0.26896214478566322       -6.0418061133577304E-002
  0.16130109238815588       0.24171496990925084
  0.10196415776492572        4.6586097542082996E-002
 p           6   1.0000000000000000
   2.0508146749125000        9.7346018232745031E-003
  0.42724624910625003       -6.3165011496547019E-002
  0.25001928314999999       -5.7110495203722841E-002
  0.14045633395499998        5.7388149027348262E-002
   9.0689982652500001E-002   4.7898819711647861E-002
   5.7643027955625002E-002   4.3945147119338543E-003

          3 0
 d           4   1.0000000000000000
   4.1122701249566029      -0.47332494084401033
  0.80618503785873696       0.44453585425802272
  0.44619161658050349       0.22009304110035216
  0.25552080427598067        1.7993341579764486E-002
 s           6   1.0000000000000000
   3.1357416824854494        7.6487877799347858E-003
   1.4695410569471776        5.0287489045723770E-002
  0.42917072702413200      -0.28573460385982991
  0.26896214478566322       -6.0418061133577304E-002
  0.16130109238815588       0.24171496990925084
  0.10196415776492572        4.6586097542082996E-002
 p           6   1.0000000000000000
   2.0508146749125000        9.7346018232745031E-003
  0.42724624910625003       -6.3165011496547019E-002
  0.25001928314999999       -5.7110495203722841E-002
  0.14045633395499998        5.7388149027348262E-002
   9.0689982652500001E-002   4.7898819711647861E-002
   5.7643027955625002E-002   4.3945147119338543E-003

          4 0
 d           4   1.0000000000000000
   4.1122701249566029      -0.47332494084401033
  0.80618503785873696       0.44453585425802272
  0.44619161658050349       0.22009304110035216
  0.25552080427598067        1.7993341579764486E-002
 s           6   1.0000000000000000
   3.1357416824854494        7.6487877799347858E-003
   1.4695410569471776        5.0287489045723770E-002
  0.42917072702413200      -0.28573460385982991
  0.26896214478566322       -6.0418061133577304E-002
  0.16130109238815588       0.24171496990925084
  0.10196415776492572        4.6586097542082996E-002
 p           6   1.0000000000000000
   2.0508146749125000        9.7346018232745031E-003
  0.42724624910625003       -6.3165011496547019E-002
  0.25001928314999999       -5.7110495203722841E-002
  0.14045633395499998        5.7388149027348262E-002
   9.0689982652500001E-002   4.7898819711647861E-002
   5.7643027955625002E-002   4.3945147119338543E-003

          5 0
 s           4   1.0000000000000000
   7.6119972070599680       0.18536103626168826
   1.3929017058802009       0.23771678223106302
  0.38696334625048251       0.18632205597323881
  0.12842965592697322        4.4589693726254674E-002
 s           7   1.0000000000000000
   10.256286070314902       -1.3186544678254319
  0.62279653258753898        1.6038777007695870
  0.23910076678539138       0.60132301017728140
   7.6119972070599680      -0.98090431986331261
   1.3929017058802009       -1.2579635035340533
  0.38696334625048251      -0.98598989990507979
  0.12842965592697322      -0.23596233641959516

          6 0
 s           4   1.0000000000000000
   7.6119972070599680       0.18536103626168826
   1.3929017058802009       0.23771678223106302
  0.38696334625048251       0.18632205597323881
  0.12842965592697322        4.4589693726254674E-002
 s           7   1.0000000000000000
   10.256286070314902       -1.3186544678254319
  0.62279653258753898        1.6038777007695870
  0.23910076678539138       0.60132301017728140
   7.6119972070599680      -0.98090431986331261
   1.3929017058802009       -1.2579635035340533
  0.38696334625048251      -0.98598989990507979
  0.12842965592697322      -0.23596233641959516

          7 0
 s           4   1.0000000000000000
   7.6119972070599680       0.18536103626168826
   1.3929017058802009       0.23771678223106302
  0.38696334625048251       0.18632205597323881
  0.12842965592697322        4.4589693726254674E-002
 s           7   1.0000000000000000
   10.256286070314902       -1.3186544678254319
  0.62279653258753898        1.6038777007695870
  0.23910076678539138       0.60132301017728140
   7.6119972070599680      -0.98090431986331261
   1.3929017058802009       -1.2579635035340533
  0.38696334625048251      -0.98598989990507979
  0.12842965592697322      -0.23596233641959516

          8 0
 s           4   1.0000000000000000
   7.6119972070599680       0.18536103626168826
   1.3929017058802009       0.23771678223106302
  0.38696334625048251       0.18632205597323881
  0.12842965592697322        4.4589693726254674E-002
 s           7   1.0000000000000000
   10.256286070314902       -1.3186544678254319
  0.62279653258753898        1.6038777007695870
  0.23910076678539138       0.60132301017728140
   7.6119972070599680      -0.98090431986331261
   1.3929017058802009       -1.2579635035340533
  0.38696334625048251      -0.98598989990507979
  0.12842965592697322      -0.23596233641959516

          9 0
 s           4   1.0000000000000000
   7.6119972070599680       0.18536103626168826
   1.3929017058802009       0.23771678223106302
  0.38696334625048251       0.18632205597323881
  0.12842965592697322        4.4589693726254674E-002
 s           7   1.0000000000000000
   10.256286070314902       -1.3186544678254319
  0.62279653258753898        1.6038777007695870
  0.23910076678539138       0.60132301017728140
   7.6119972070599680      -0.98090431986331261
   1.3929017058802009       -1.2579635035340533
  0.38696334625048251      -0.98598989990507979
  0.12842965592697322      -0.23596233641959516

          10 0
 s           4   1.0000000000000000
   7.6119972070599680       0.18536103626168826
   1.3929017058802009       0.23771678223106302
  0.38696334625048251       0.18632205597323881
  0.12842965592697322        4.4589693726254674E-002
 s           7   1.0000000000000000
   10.256286070314902       -1.3186544678254319
  0.62279653258753898        1.6038777007695870
  0.23910076678539138       0.60132301017728140
   7.6119972070599680      -0.98090431986331261
   1.3929017058802009       -1.2579635035340533
  0.38696334625048251      -0.98598989990507979
  0.12842965592697322      -0.23596233641959516

          11 0
 s           4   1.0000000000000000
   7.6119972070599680       0.18536103626168826
   1.3929017058802009       0.23771678223106302
  0.38696334625048251       0.18632205597323881
  0.12842965592697322        4.4589693726254674E-002
 s           7   1.0000000000000000
   10.256286070314902       -1.3186544678254319
  0.62279653258753898        1.6038777007695870
  0.23910076678539138       0.60132301017728140
   7.6119972070599680      -0.98090431986331261
   1.3929017058802009       -1.2579635035340533
  0.38696334625048251      -0.98598989990507979
  0.12842965592697322      -0.23596233641959516

          12 0
 s           4   1.0000000000000000
   7.6119972070599680       0.18536103626168826
   1.3929017058802009       0.23771678223106302
  0.38696334625048251       0.18632205597323881
  0.12842965592697322        4.4589693726254674E-002
 s           7   1.0000000000000000
   10.256286070314902       -1.3186544678254319
  0.62279653258753898        1.6038777007695870
  0.23910076678539138       0.60132301017728140
   7.6119972070599680      -0.98090431986331261
   1.3929017058802009       -1.2579635035340533
  0.38696334625048251      -0.98598989990507979
  0.12842965592697322      -0.23596233641959516

          13 0
 s           4   1.0000000000000000
   7.6119972070599680       0.18536103626168826
   1.3929017058802009       0.23771678223106302
  0.38696334625048251       0.18632205597323881
  0.12842965592697322        4.4589693726254674E-002
 s           7   1.0000000000000000
   10.256286070314902       -1.3186544678254319
  0.62279653258753898        1.6038777007695870
  0.23910076678539138       0.60132301017728140
   7.6119972070599680      -0.98090431986331261
   1.3929017058802009       -1.2579635035340533
  0.38696334625048251      -0.98598989990507979
  0.12842965592697322      -0.23596233641959516

          14 0
 s           4   1.0000000000000000
   7.6119972070599680       0.18536103626168826
   1.3929017058802009       0.23771678223106302
  0.38696334625048251       0.18632205597323881
  0.12842965592697322        4.4589693726254674E-002
 s           7   1.0000000000000000
   10.256286070314902       -1.3186544678254319
  0.62279653258753898        1.6038777007695870
  0.23910076678539138       0.60132301017728140
   7.6119972070599680      -0.98090431986331261
   1.3929017058802009       -1.2579635035340533
  0.38696334625048251      -0.98598989990507979
  0.12842965592697322      -0.23596233641959516

          15 0
 s           4   1.0000000000000000
   7.6119972070599680       0.18536103626168826
   1.3929017058802009       0.23771678223106302
  0.38696334625048251       0.18632205597323881
  0.12842965592697322        4.4589693726254674E-002
 s           7   1.0000000000000000
   10.256286070314902       -1.3186544678254319
  0.62279653258753898        1.6038777007695870
  0.23910076678539138       0.60132301017728140
   7.6119972070599680      -0.98090431986331261
   1.3929017058802009       -1.2579635035340533
  0.38696334625048251      -0.98598989990507979
  0.12842965592697322      -0.23596233641959516

          16 0
 s           4   1.0000000000000000
   7.6119972070599680       0.18536103626168826
   1.3929017058802009       0.23771678223106302
  0.38696334625048251       0.18632205597323881
  0.12842965592697322        4.4589693726254674E-002
 s           7   1.0000000000000000
   10.256286070314902       -1.3186544678254319
  0.62279653258753898        1.6038777007695870
  0.23910076678539138       0.60132301017728140
   7.6119972070599680      -0.98090431986331261
   1.3929017058802009       -1.2579635035340533
  0.38696334625048251      -0.98598989990507979
  0.12842965592697322      -0.23596233641959516

          17 0
 s           4   1.0000000000000000
   7.6119972070599680       0.18536103626168826
   1.3929017058802009       0.23771678223106302
  0.38696334625048251       0.18632205597323881
  0.12842965592697322        4.4589693726254674E-002
 s           7   1.0000000000000000
   10.256286070314902       -1.3186544678254319
  0.62279653258753898        1.6038777007695870
  0.23910076678539138       0.60132301017728140
   7.6119972070599680      -0.98090431986331261
   1.3929017058802009       -1.2579635035340533
  0.38696334625048251      -0.98598989990507979
  0.12842965592697322      -0.23596233641959516

          18 0
 s           4   1.0000000000000000
   7.6119972070599680       0.18536103626168826
   1.3929017058802009       0.23771678223106302
  0.38696334625048251       0.18632205597323881
  0.12842965592697322        4.4589693726254674E-002
 s           7   1.0000000000000000
   10.256286070314902       -1.3186544678254319
  0.62279653258753898        1.6038777007695870
  0.23910076678539138       0.60132301017728140
   7.6119972070599680      -0.98090431986331261
   1.3929017058802009       -1.2579635035340533
  0.38696334625048251      -0.98598989990507979
  0.12842965592697322      -0.23596233641959516

          19 0
 s           4   1.0000000000000000
   7.6119972070599680       0.18536103626168826
   1.3929017058802009       0.23771678223106302
  0.38696334625048251       0.18632205597323881
  0.12842965592697322        4.4589693726254674E-002
 s           7   1.0000000000000000
   10.256286070314902       -1.3186544678254319
  0.62279653258753898        1.6038777007695870
  0.23910076678539138       0.60132301017728140
   7.6119972070599680      -0.98090431986331261
   1.3929017058802009       -1.2579635035340533
  0.38696334625048251      -0.98598989990507979
  0.12842965592697322      -0.23596233641959516

          20 0
 s           4   1.0000000000000000
   7.6119972070599680       0.18536103626168826
   1.3929017058802009       0.23771678223106302
  0.38696334625048251       0.18632205597323881
  0.12842965592697322        4.4589693726254674E-002
 s           7   1.0000000000000000
   10.256286070314902       -1.3186544678254319
  0.62279653258753898        1.6038777007695870
  0.23910076678539138       0.60132301017728140
   7.6119972070599680      -0.98090431986331261
   1.3929017058802009       -1.2579635035340533
  0.38696334625048251      -0.98598989990507979
  0.12842965592697322      -0.23596233641959516

          21 0
 s           6   1.0000000000000000
   106.38971661757030       -9.8009151699919875E-002
   19.510792340428655      -0.13676085979760455
   5.4829535718846767      -0.13152364218142998
  0.78407453403153715       0.19871892812986372
  0.35586124621498083       0.18458182484227953
  0.16970821740424907        3.2280723842753281E-002
 p           6   1.0000000000000000
   19.697346208514816       0.46871300964462981
   5.1366673338425883       0.56702433552910014
   1.8379485147102486       0.57908791780781932
  0.76829761123302320       0.41523341391527901
  0.35131800475041969       0.15469126795368998
  0.16609075699863593        1.5897464808064834E-002

          22 0
 s           6   1.0000000000000000
   106.38971661757030       -9.8009151699919875E-002
   19.510792340428655      -0.13676085979760455
   5.4829535718846767      -0.13152364218142998
  0.78407453403153715       0.19871892812986372
  0.35586124621498083       0.18458182484227953
  0.16970821740424907        3.2280723842753281E-002
 p           6   1.0000000000000000
   19.697346208514816       0.46871300964462981
   5.1366673338425883       0.56702433552910014
   1.8379485147102486       0.57908791780781932
  0.76829761123302320       0.41523341391527901
  0.35131800475041969       0.15469126795368998
  0.16609075699863593        1.5897464808064834E-002

          23 0
 s           6   1.0000000000000000
   106.38971661757030       -9.8009151699919875E-002
   19.510792340428655      -0.13676085979760455
   5.4829535718846767      -0.13152364218142998
  0.78407453403153715       0.19871892812986372
  0.35586124621498083       0.18458182484227953
  0.16970821740424907        3.2280723842753281E-002
 p           6   1.0000000000000000
   19.697346208514816       0.46871300964462981
   5.1366673338425883       0.56702433552910014
   1.8379485147102486       0.57908791780781932
  0.76829761123302320       0.41523341391527901
  0.35131800475041969       0.15469126795368998
  0.16609075699863593        1.5897464808064834E-002

          24 0
 s           6   1.0000000000000000
   106.38971661757030       -9.8009151699919875E-002
   19.510792340428655      -0.13676085979760455
   5.4829535718846767      -0.13152364218142998
  0.78407453403153715       0.19871892812986372
  0.35586124621498083       0.18458182484227953
  0.16970821740424907        3.2280723842753281E-002
 p           6   1.0000000000000000
   19.697346208514816       0.46871300964462981
   5.1366673338425883       0.56702433552910014
   1.8379485147102486       0.57908791780781932
  0.76829761123302320       0.41523341391527901
  0.35131800475041969       0.15469126795368998
  0.16609075699863593        1.5897464808064834E-002

          25 0
 s           6   1.0000000000000000
   106.38971661757030       -9.8009151699919875E-002
   19.510792340428655      -0.13676085979760455
   5.4829535718846767      -0.13152364218142998
  0.78407453403153715       0.19871892812986372
  0.35586124621498083       0.18458182484227953
  0.16970821740424907        3.2280723842753281E-002
 p           6   1.0000000000000000
   19.697346208514816       0.46871300964462981
   5.1366673338425883       0.56702433552910014
   1.8379485147102486       0.57908791780781932
  0.76829761123302320       0.41523341391527901
  0.35131800475041969       0.15469126795368998
  0.16609075699863593        1.5897464808064834E-002

          26 0
 s           6   1.0000000000000000
   106.38971661757030       -9.8009151699919875E-002
   19.510792340428655      -0.13676085979760455
   5.4829535718846767      -0.13152364218142998
  0.78407453403153715       0.19871892812986372
  0.35586124621498083       0.18458182484227953
  0.16970821740424907        3.2280723842753281E-002
 p           6   1.0000000000000000
   19.697346208514816       0.46871300964462981
   5.1366673338425883       0.56702433552910014
   1.8379485147102486       0.57908791780781932
  0.76829761123302320       0.41523341391527901
  0.35131800475041969       0.15469126795368998
  0.16609075699863593        1.5897464808064834E-002

          27 0
 s           6   1.0000000000000000
   106.38971661757030       -9.8009151699919875E-002
   19.510792340428655      -0.13676085979760455
   5.4829535718846767      -0.13152364218142998
  0.78407453403153715       0.19871892812986372
  0.35586124621498083       0.18458182484227953
  0.16970821740424907        3.2280723842753281E-002
 p           6   1.0000000000000000
   19.697346208514816       0.46871300964462981
   5.1366673338425883       0.56702433552910014
   1.8379485147102486       0.57908791780781932
  0.76829761123302320       0.41523341391527901
  0.35131800475041969       0.15469126795368998
  0.16609075699863593        1.5897464808064834E-002

          28 0
 s           6   1.0000000000000000
   106.38971661757030       -9.8009151699919875E-002
   19.510792340428655      -0.13676085979760455
   5.4829535718846767      -0.13152364218142998
  0.78407453403153715       0.19871892812986372
  0.35586124621498083       0.18458182484227953
  0.16970821740424907        3.2280723842753281E-002
 p           6   1.0000000000000000
   19.697346208514816       0.46871300964462981
   5.1366673338425883       0.56702433552910014
   1.8379485147102486       0.57908791780781932
  0.76829761123302320       0.41523341391527901
  0.35131800475041969       0.15469126795368998
  0.16609075699863593        1.5897464808064834E-002

          29 0
 s           6   1.0000000000000000
   106.38971661757030       -9.8009151699919875E-002
   19.510792340428655      -0.13676085979760455
   5.4829535718846767      -0.13152364218142998
  0.78407453403153715       0.19871892812986372
  0.35586124621498083       0.18458182484227953
  0.16970821740424907        3.2280723842753281E-002
 p           6   1.0000000000000000
   19.697346208514816       0.46871300964462981
   5.1366673338425883       0.56702433552910014
   1.8379485147102486       0.57908791780781932
  0.76829761123302320       0.41523341391527901
  0.35131800475041969       0.15469126795368998
  0.16609075699863593        1.5897464808064834E-002

          30 0
 s           6   1.0000000000000000
   106.38971661757030       -9.8009151699919875E-002
   19.510792340428655      -0.13676085979760455
   5.4829535718846767      -0.13152364218142998
  0.78407453403153715       0.19871892812986372
  0.35586124621498083       0.18458182484227953
  0.16970821740424907        3.2280723842753281E-002
 p           6   1.0000000000000000
   19.697346208514816       0.46871300964462981
   5.1366673338425883       0.56702433552910014
   1.8379485147102486       0.57908791780781932
  0.76829761123302320       0.41523341391527901
  0.35131800475041969       0.15469126795368998
  0.16609075699863593        1.5897464808064834E-002

          31 0
 s           6   1.0000000000000000
   106.38971661757030       -9.8009151699919875E-002
   19.510792340428655      -0.13676085979760455
   5.4829535718846767      -0.13152364218142998
  0.78407453403153715       0.19871892812986372
  0.35586124621498083       0.18458182484227953
  0.16970821740424907        3.2280723842753281E-002
 p           6   1.0000000000000000
   19.697346208514816       0.46871300964462981
   5.1366673338425883       0.56702433552910014
   1.8379485147102486       0.57908791780781932
  0.76829761123302320       0.41523341391527901
  0.35131800475041969       0.15469126795368998
  0.16609075699863593        1.5897464808064834E-002

          32 0
 s           6   1.0000000000000000
   106.38971661757030       -9.8009151699919875E-002
   19.510792340428655      -0.13676085979760455
   5.4829535718846767      -0.13152364218142998
  0.78407453403153715       0.19871892812986372
  0.35586124621498083       0.18458182484227953
  0.16970821740424907        3.2280723842753281E-002
 p           6   1.0000000000000000
   19.697346208514816       0.46871300964462981
   5.1366673338425883       0.56702433552910014
   1.8379485147102486       0.57908791780781932
  0.76829761123302320       0.41523341391527901
  0.35131800475041969       0.15469126795368998
  0.16609075699863593        1.5897464808064834E-002

          33 0
 s           6   1.0000000000000000
   106.38971661757030       -9.8009151699919875E-002
   19.510792340428655      -0.13676085979760455
   5.4829535718846767      -0.13152364218142998
  0.78407453403153715       0.19871892812986372
  0.35586124621498083       0.18458182484227953
  0.16970821740424907        3.2280723842753281E-002
 p           6   1.0000000000000000
   19.697346208514816       0.46871300964462981
   5.1366673338425883       0.56702433552910014
   1.8379485147102486       0.57908791780781932
  0.76829761123302320       0.41523341391527901
  0.35131800475041969       0.15469126795368998
  0.16609075699863593        1.5897464808064834E-002

          34 0
 s           6   1.0000000000000000
   106.38971661757030       -9.8009151699919875E-002
   19.510792340428655      -0.13676085979760455
   5.4829535718846767      -0.13152364218142998
  0.78407453403153715       0.19871892812986372
  0.35586124621498083       0.18458182484227953
  0.16970821740424907        3.2280723842753281E-002
 p           6   1.0000000000000000
   19.697346208514816       0.46871300964462981
   5.1366673338425883       0.56702433552910014
   1.8379485147102486       0.57908791780781932
  0.76829761123302320       0.41523341391527901
  0.35131800475041969       0.15469126795368998
  0.16609075699863593        1.5897464808064834E-002

          35 0
 s           6   1.0000000000000000
   106.38971661757030       -9.8009151699919875E-002
   19.510792340428655      -0.13676085979760455
   5.4829535718846767      -0.13152364218142998
  0.78407453403153715       0.19871892812986372
  0.35586124621498083       0.18458182484227953
  0.16970821740424907        3.2280723842753281E-002
 p           6   1.0000000000000000
   19.697346208514816       0.46871300964462981
   5.1366673338425883       0.56702433552910014
   1.8379485147102486       0.57908791780781932
  0.76829761123302320       0.41523341391527901
  0.35131800475041969       0.15469126795368998
  0.16609075699863593        1.5897464808064834E-002

          36 0
 s           6   1.0000000000000000
   106.38971661757030       -9.8009151699919875E-002
   19.510792340428655      -0.13676085979760455
   5.4829535718846767      -0.13152364218142998
  0.78407453403153715       0.19871892812986372
  0.35586124621498083       0.18458182484227953
  0.16970821740424907        3.2280723842753281E-002
 p           6   1.0000000000000000
   19.697346208514816       0.46871300964462981
   5.1366673338425883       0.56702433552910014
   1.8379485147102486       0.57908791780781932
  0.76829761123302320       0.41523341391527901
  0.35131800475041969       0.15469126795368998
  0.16609075699863593        1.5897464808064834E-002

          37 0
 s           6   1.0000000000000000
   106.38971661757030       -9.8009151699919875E-002
   19.510792340428655      -0.13676085979760455
   5.4829535718846767      -0.13152364218142998
  0.78407453403153715       0.19871892812986372
  0.35586124621498083       0.18458182484227953
  0.16970821740424907        3.2280723842753281E-002
 p           6   1.0000000000000000
   19.697346208514816       0.46871300964462981
   5.1366673338425883       0.56702433552910014
   1.8379485147102486       0.57908791780781932
  0.76829761123302320       0.41523341391527901
  0.35131800475041969       0.15469126795368998
  0.16609075699863593        1.5897464808064834E-002

          38 0
 s           6   1.0000000000000000
   106.38971661757030       -9.8009151699919875E-002
   19.510792340428655      -0.13676085979760455
   5.4829535718846767      -0.13152364218142998
  0.78407453403153715       0.19871892812986372
  0.35586124621498083       0.18458182484227953
  0.16970821740424907        3.2280723842753281E-002
 p           6   1.0000000000000000
   19.697346208514816       0.46871300964462981
   5.1366673338425883       0.56702433552910014
   1.8379485147102486       0.57908791780781932
  0.76829761123302320       0.41523341391527901
  0.35131800475041969       0.15469126795368998
  0.16609075699863593        1.5897464808064834E-002

          39 0
 s           6   1.0000000000000000
   106.38971661757030       -9.8009151699919875E-002
   19.510792340428655      -0.13676085979760455
   5.4829535718846767      -0.13152364218142998
  0.78407453403153715       0.19871892812986372
  0.35586124621498083       0.18458182484227953
  0.16970821740424907        3.2280723842753281E-002
 p           6   1.0000000000000000
   19.697346208514816       0.46871300964462981
   5.1366673338425883       0.56702433552910014
   1.8379485147102486       0.57908791780781932
  0.76829761123302320       0.41523341391527901
  0.35131800475041969       0.15469126795368998
  0.16609075699863593        1.5897464808064834E-002

          40 0
 s           6   1.0000000000000000
   106.38971661757030       -9.8009151699919875E-002
   19.510792340428655      -0.13676085979760455
   5.4829535718846767      -0.13152364218142998
  0.78407453403153715       0.19871892812986372
  0.35586124621498083       0.18458182484227953
  0.16970821740424907        3.2280723842753281E-002
 p           6   1.0000000000000000
   19.697346208514816       0.46871300964462981
   5.1366673338425883       0.56702433552910014
   1.8379485147102486       0.57908791780781932
  0.76829761123302320       0.41523341391527901
  0.35131800475041969       0.15469126795368998
  0.16609075699863593        1.5897464808064834E-002

          41 0
 d           4   1.0000000000000000
   4.1122701249566029      -0.47332494084401033
  0.80618503785873696       0.44453585425802272
  0.44619161658050349       0.22009304110035216
  0.25552080427598067        1.7993341579764486E-002
 s           6   1.0000000000000000
   3.1357416824854494        7.6487877799347858E-003
   1.4695410569471776        5.0287489045723770E-002
  0.42917072702413200      -0.28573460385982991
  0.26896214478566322       -6.0418061133577304E-002
  0.16130109238815588       0.24171496990925084
  0.10196415776492572        4.6586097542082996E-002
 p           6   1.0000000000000000
   2.0508146749125000        9.7346018232745031E-003
  0.42724624910625003       -6.3165011496547019E-002
  0.25001928314999999       -5.7110495203722841E-002
  0.14045633395499998        5.7388149027348262E-002
   9.0689982652500001E-002   4.7898819711647861E-002
   5.7643027955625002E-002   4.3945147119338543E-003

          42 0
 d           4   1.0000000000000000
   4.1122701249566029      -0.47332494084401033
  0.80618503785873696       0.44453585425802272
  0.44619161658050349       0.22009304110035216
  0.25552080427598067        1.7993341579764486E-002
 s           6   1.0000000000000000
   3.1357416824854494        7.6487877799347858E-003
   1.4695410569471776        5.0287489045723770E-002
  0.42917072702413200      -0.28573460385982991
  0.26896214478566322       -6.0418061133577304E-002
  0.16130109238815588       0.24171496990925084
  0.10196415776492572        4.6586097542082996E-002
 p           6   1.0000000000000000
   2.0508146749125000        9.7346018232745031E-003
  0.42724624910625003       -6.3165011496547019E-002
  0.25001928314999999       -5.7110495203722841E-002
  0.14045633395499998        5.7388149027348262E-002
   9.0689982652500001E-002   4.7898819711647861E-002
   5.7643027955625002E-002   4.3945147119338543E-003

          43 0
 d           4   1.0000000000000000
   4.1122701249566029      -0.47332494084401033
  0.80618503785873696       0.44453585425802272
  0.44619161658050349       0.22009304110035216
  0.25552080427598067        1.7993341579764486E-002
 s           6   1.0000000000000000
   3.1357416824854494        7.6487877799347858E-003
   1.4695410569471776        5.0287489045723770E-002
  0.42917072702413200      -0.28573460385982991
  0.26896214478566322       -6.0418061133577304E-002
  0.16130109238815588       0.24171496990925084
  0.10196415776492572        4.6586097542082996E-002
 p           6   1.0000000000000000
   2.0508146749125000        9.7346018232745031E-003
  0.42724624910625003       -6.3165011496547019E-002
  0.25001928314999999       -5.7110495203722841E-002
  0.14045633395499998        5.7388149027348262E-002
   9.0689982652500001E-002   4.7898819711647861E-002
   5.7643027955625002E-002   4.3945147119338543E-003

          44 0
 d           4   1.0000000000000000
   4.1122701249566029      -0.47332494084401033
  0.80618503785873696       0.44453585425802272
  0.44619161658050349       0.22009304110035216
  0.25552080427598067        1.7993341579764486E-002
 s           6   1.0000000000000000
   3.1357416824854494        7.6487877799347858E-003
   1.4695410569471776        5.0287489045723770E-002
  0.42917072702413200      -0.28573460385982991
  0.26896214478566322       -6.0418061133577304E-002
  0.16130109238815588       0.24171496990925084
  0.10196415776492572        4.6586097542082996E-002
 p           6   1.0000000000000000
   2.0508146749125000        9.7346018232745031E-003
  0.42724624910625003       -6.3165011496547019E-002
  0.25001928314999999       -5.7110495203722841E-002
  0.14045633395499998        5.7388149027348262E-002
   9.0689982652500001E-002   4.7898819711647861E-002
   5.7643027955625002E-002   4.3945147119338543E-003

[MO]
 Sym= 1A
 Ene= -0.313227
 Spin= Alpha
 Occup= 2.000000
  1     0.0000093061226210
  2     0.0000286310114347
  3     0.0000858813376131
  4     0.0000153003133235
  5     0.0000533363953242
  6     0.0010364796795023
  7     0.0006846306704515
  8    -0.0001526903769167
  9     0.0009174953607081
 10    -0.0000987226951874
 11    -0.0000367323763095
 12    -0.0000054720210564
 13     0.0000039265095805
 14    -0.0000718433952720
 15     0.0003510673915017
 16    -0.0000405447097298
 17    -0.0004423638701759
 18     0.0000854384631268
 19     0.0000016103830968
 20     0.0000324444841924
 21    -0.0000835664435085
 22    -0.0000149282859641
 23     0.0000409589678358
 24     0.0009301461903897
 25    -0.0007327725561764
 26    -0.0001942678677381
 27     0.0007230993345383
 28    -0.0012057237587820
 29     0.0005767883409538
 30    -0.0000647231946520
 31    -0.0000297430281529
 32    -0.0001986949302257
 33     0.0018859631615021
 34     0.0004782382516220
 35     0.0046139716752018
 36     0.0061671455851133
 37    -0.0123269446089574
 38    -0.0024074160154173
 39    -0.0128808063744284
 40    -0.0022952105658980
 41    -0.0242933210502817
 42    -0.0049694294166751
 43    -0.0264032981832680
 44    -0.0045501514474561
 45    -0.0051721658934395
 46    -0.0001127093721903
 47    -0.0044300133853996
 48     0.0001368463789951
 49     0.0648283278151363
 50     0.0143346731668437
 51     0.0648256188138924
 52     0.0143192779749956
 53     0.0644380879873190
 54     0.0142520073578610
 55     0.0647481463749702
 56     0.0142871668091546
 57    -0.0051844404967268
 58    -0.0000415648504833
 59    -0.0059732196626837
 60    -0.0002985596439965
 61    -0.0270617393687314
 62    -0.0047059986559242
 63    -0.0250772193785637
 64    -0.0051320706465748
 65    -0.0132205042861425
 66    -0.0023572706569775
 67    -0.0126785708112993
 68    -0.0024701493862335
 69    -0.0417931396910723
 70    -0.0000185637489733
 71    -0.0024466881992606
 72    -0.0300871772476055
 73    -0.1417774237640721
 74    -0.0010710759781678
 75    -0.0015092177280554
 76    -0.0363753249291077
 77    -0.1162766104174426
 78    -0.0410231766945434
 79     0.0152807302944285
 80    -0.0128607851965637
 81    -0.1204274167378162
 82     0.0405848937836130
 83    -0.0171666573838501
 84    -0.0109143279138882
 85    -0.0760916352664373
 86    -0.0245773101638008
 87     0.0121338560696845
 88     0.0479728727641221
 89    -0.0763531160943180
 90     0.0240884379498983
 91    -0.0075554168732944
 92     0.0514796170954560
 93    -0.0027001307619152
 94     0.0008382716417474
 95     0.0044843285859767
 96     0.1105568636682627
 97     0.3502590013151526
 98     0.0015568929672510
 99     0.0019090611868549
 100     0.1379577372816101
 101     0.3309307803820019
 102    -0.1247161731716696
 103    -0.0028976843122244
 104     0.0681728654073855
 105     0.3310164392138457
 106     0.1265332062640721
 107    -0.0000754779038444
 108     0.0652484086541935
 109     0.3302028652333424
 110    -0.1262794198439894
 111     0.0001750803672106
 112    -0.0656676679202901
 113     0.3305080599451560
 114     0.1243594495454216
 115    -0.0031312444537148
 116    -0.0686705477815117
 117     0.3483821110828397
 118    -0.0016358975069086
 119     0.0016875685361117
 120    -0.1386510019373809
 121    -0.0069743825515805
 122    -0.0009623513832508
 123     0.0044637789905946
 124    -0.1118528416468863
 125    -0.0799422491185758
 126    -0.0254868180788002
 127    -0.0080622638911070
 128    -0.0520467400830388
 129    -0.0799171193398169
 130     0.0258303549764577
 131     0.0126945835447587
 132    -0.0486885634500896
 133    -0.1239117851024383
 134    -0.0419093346253705
 135    -0.0177173603723980
 136     0.0115723977260168
 137    -0.1199988439290100
 138     0.0423748045891266
 139     0.0157032125498990
 140     0.0135125986008334
 141    -0.1459670280154774
 142     0.0010864770681063
 143    -0.0015698102524182
 144     0.0376075226113005
 145    -0.0429472174099022
 146     0.0000692571371360
 147    -0.0025525093067061
 148     0.0309503017226876
 149     0.0012407809476645
 150     0.0005949093868110
 151    -0.0000764285792402
 152     0.0000411933937345
 153    -0.0002006220933029
 154     0.0019324141552899
 155    -0.0005217809466290
 156     0.0047365665023700
 157    -0.0063152856571412
 158    -0.0000096825940400
 159     0.0000291454348593
 160     0.0000878900954888
 161    -0.0000156544867076
 162     0.0000549145921277
 163     0.0010658847138646
 164    -0.0006999524375664
 165    -0.0001558154085039
 166    -0.0009462382896816
 167     0.0001012826693594
 168    -0.0000376584325665
 169    -0.0000061316511097
 170    -0.0000040466178205
 171    -0.0000731627067334
 172     0.0003608134661747
 173     0.0000428042038670
 174    -0.0004506668964119
 175    -0.0000895775902804
 176    -0.0000012134575070
 177     0.0000334817537416
 178    -0.0000855659349568
 179     0.0000153183195343
 180     0.0000416843441513
 181     0.0009492474232829
 182     0.0007525815766867
 183    -0.0002021068277103
 184    -0.0007345656457506
 Sym= 2A
 Ene= -0.313013
 Spin= Alpha
 Occup= 2.000000
  1    -0.0000187151672761
  2    -0.0000460217965590
  3    -0.0001390976573596
  4    -0.0000247140731271
  5    -0.0000825639521526
  6    -0.0016609329924694
  7    -0.0011089602780593
  8     0.0002404767342583
  9    -0.0014645463312123
 10     0.0001619689133243
 11     0.0000604871720580
 12     0.0000079375703966
 13    -0.0000054626812612
 14     0.0000939949421885
 15    -0.0005299970470151
 16     0.0000445925208651
 17     0.0008107546443621
 18     0.0000839653618801
 19    -0.0000081628936971
 20    -0.0000517777679081
 21     0.0001367842114184
 22     0.0000244552085732
 23    -0.0000663191451320
 24    -0.0015146266218312
 25     0.0011803792439882
 26     0.0003046432160767
 27    -0.0011837981731359
 28     0.0019625100547853
 29    -0.0008211333791397
 30     0.0001236530012013
 31     0.0000551982973892
 32     0.0004126649937450
 33    -0.0029415913558982
 34    -0.0006292202555933
 35    -0.0071826824874871
 36    -0.0101595750126779
 37     0.0191908280472934
 38     0.0040295026438190
 39     0.0202366585108569
 40     0.0038603311482022
 41     0.0411548587642745
 42     0.0100946555309325
 43     0.0454072343137673
 44     0.0095240701177944
 45     0.0436698981708064
 46     0.0105733878516178
 47     0.0461138085647545
 48     0.0107656040440264
 49     0.0121740659124808
 50     0.0027890548400804
 51     0.0109606544925938
 52     0.0025538263298491
 53    -0.0179863063658590
 54    -0.0044408994911124
 55    -0.0192999135195595
 56    -0.0046912009602164
 57    -0.0563755832213809
 58    -0.0132156301508185
 59    -0.0535899687475015
 60    -0.0129873223202353
 61    -0.0538727060020679
 62    -0.0114050756029441
 63    -0.0492073004046581
 64    -0.0120813501338324
 65    -0.0240253066928628
 66    -0.0045908429599587
 67    -0.0228352738116745
 68    -0.0047878763736264
 69     0.0671040244020244
 70     0.0000626674897187
 71     0.0039627359822106
 72     0.0525424568394292
 73     0.2575144420557143
 74     0.0021172449903955
 75     0.0030557115364291
 76     0.0783010565836559
 77     0.2173448957844754
 78     0.0820494179599179
 79    -0.0302945489184205
 80     0.0398402220099227
 81     0.2271270626466178
 82    -0.0812528888934539
 83     0.0353236970512696
 84     0.0378079570133487
 85     0.2184284212098445
 86     0.0798493201232531
 87    -0.0362112105521109
 88    -0.0358410525066807
 89     0.2261167263589194
 90    -0.0791153678980097
 91     0.0329626759528677
 92    -0.0419332747225032
 93     0.2550428157297598
 94     0.0016860872077034
 95    -0.0052267099762867
 96    -0.0751137901134157
 97     0.0751337890632930
 98     0.0006767758597177
 99    -0.0025257615953419
 100    -0.0534328516664381
 101     0.0163394720367459
 102    -0.0060492350210773
 103    -0.0011880921881710
 104    -0.0275278099578556
 105     0.0138923086950813
 106     0.0055690050204032
 107     0.0000113435991130
 108    -0.0275085508418288
 109    -0.0432527056642657
 110     0.0178790479329256
 111     0.0000199833662607
 112    -0.0261832638465883
 113    -0.0458347266425634
 114    -0.0182880871505654
 115     0.0017291672748999
 116    -0.0260056412603282
 117    -0.1195728622820941
 118     0.0007757923249482
 119     0.0029832597786544
 120    -0.0541565350263417
 121    -0.3147153794224244
 122     0.0017740831334294
 123     0.0060350638411834
 124    -0.0847403278403764
 125    -0.2729793431742581
 126    -0.0961287703686626
 127    -0.0399295116445093
 128    -0.0476585138494327
 129    -0.2646210290948786
 130     0.0967694593397476
 131     0.0437745344714452
 132    -0.0409528654724701
 133    -0.2707629122046603
 134    -0.0972328215584719
 135    -0.0422373754141975
 136     0.0458715841107346
 137    -0.2599552556826258
 138     0.0982682613423687
 139     0.0360999754561825
 140     0.0482354002783358
 141    -0.3071948053764790
 142     0.0025018852612577
 143    -0.0036852516381926
 144     0.0938266635055304
 145    -0.0798020662036510
 146     0.0001711936316477
 147    -0.0047870021296140
 148     0.0626096008068277
 149     0.0023382786022208
 150     0.0009789764966360
 151    -0.0001655260471286
 152     0.0000834217824550
 153    -0.0004854396955520
 154     0.0034878958387793
 155    -0.0008028183206707
 156     0.0085321469752222
 157    -0.0120518947214972
 158    -0.0000225851772861
 159     0.0000542732981479
 160     0.0001648823149824
 161    -0.0000292769679061
 162     0.0000984168618216
 163     0.0019774395221162
 164    -0.0013129816630700
 165    -0.0002838355135490
 166    -0.0017493060352730
 167     0.0001923550157072
 168    -0.0000718385661872
 169    -0.0000101452199398
 170    -0.0000065197249817
 171    -0.0001099353698197
 172     0.0006298795322994
 173     0.0000568860607209
 174    -0.0009597238945771
 175     0.0001008158294668
 176    -0.0000089956993665
 177     0.0000618409663364
 178    -0.0001622318453767
 179     0.0000290704063055
 180     0.0000781465430717
 181     0.0017903142351342
 182     0.0014037926711718
 183    -0.0003669150161778
 184    -0.0013927939596574
 Sym= 3A
 Ene= -0.312830
 Spin= Alpha
 Occup= 2.000000
  1     0.0000206714986310
  2     0.0000506324444492
  3     0.0001529848856728
  4     0.0000273089248570
  5     0.0000905630250647
  6     0.0018342370012274
  7     0.0012262804171938
  8    -0.0002661343280759
  9     0.0016147637758516
 10    -0.0001794200048958
 11    -0.0000669389001931
 12    -0.0000086930565807
 13     0.0000059486644455
 14    -0.0001017836703169
 15     0.0005913289464073
 16    -0.0000468988703994
 17    -0.0008950562702839
 18    -0.0000952994623124
 19     0.0000092417135200
 20     0.0000569483865906
 21    -0.0001506045044402
 22    -0.0000270643602444
 23     0.0000730653064967
 24     0.0016753743684796
 25    -0.0013044162488289
 26    -0.0003363842778244
 27     0.0013087949265172
 28    -0.0021932074065908
 29     0.0009136361996453
 30    -0.0001383743046066
 31    -0.0000620624845675
 32    -0.0004641185243029
 33     0.0032659462638355
 34     0.0006807571818141
 35     0.0079340668517243
 36     0.0112411799671884
 37    -0.0213622449354759
 38    -0.0044570407178816
 39    -0.0225415737694743
 40    -0.0042720311418195
 41    -0.0456332123800929
 42    -0.0113062367750361
 43    -0.0504594012528535
 44    -0.0106911662387150
 45    -0.0526153406299564
 46    -0.0129493565769863
 47    -0.0559020988944097
 48    -0.0132590935145387
 49    -0.0321331106305080
 50    -0.0086899526420384
 51    -0.0310066004083804
 52    -0.0084521549467436
 53    -0.0282552058132610
 54    -0.0077822228783784
 55    -0.0290828951593657
 56    -0.0079451425636532
 57    -0.0455323476002831
 58    -0.0108295903008914
 59    -0.0430202280142242
 60    -0.0105840606186726
 61    -0.0399872094706414
 62    -0.0085504681498392
 63    -0.0364473256858705
 64    -0.0090377459167385
 65    -0.0178767443393299
 66    -0.0033936537853909
 67    -0.0169801508816765
 68    -0.0035375922624177
 69    -0.0747965836642423
 70    -0.0000772994311798
 71    -0.0044343757934041
 72    -0.0587095252316781
 73    -0.2881778013773418
 74    -0.0024100824479306
 75    -0.0034305907606685
 76    -0.0882265850094174
 77    -0.2428891500620145
 78    -0.0924401313250577
 79     0.0341453066736998
 80    -0.0456450253438249
 81    -0.2541504669875885
 82     0.0915381051771256
 83    -0.0398711156786459
 84    -0.0435928256582084
 85    -0.2517833287533269
 86    -0.0927972006953331
 87     0.0418858949999366
 88     0.0333248935160861
 89    -0.2614329037880584
 90     0.0920258102679384
 91    -0.0388756598753031
 92     0.0400103003118296
 93    -0.3145284978227983
 94    -0.0023415495168152
 95     0.0054133041966449
 96     0.0640104750158997
 97    -0.2002888881819437
 98    -0.0012335365344390
 99     0.0026309279695696
 100     0.0155484594809410
 101    -0.1258565948477660
 102     0.0525365521443896
 103     0.0025839163002364
 104    -0.0008662827958695
 105    -0.1240697965373331
 106    -0.0526585938665848
 107     0.0004899799337165
 108    -0.0007480309939044
 109    -0.1186550191374308
 110     0.0504077992959283
 111     0.0003655381697719
 112     0.0058846780569721
 113    -0.1197782098004956
 114    -0.0501729069765656
 115     0.0023774376910708
 116     0.0060502848661590
 117    -0.1816545584322542
 118     0.0009500358461827
 119     0.0021467266459462
 120    -0.0051751968526866
 121    -0.2583443635228186
 122     0.0016843620105317
 123     0.0041815908379665
 124    -0.0474259334120888
 125    -0.2106919911806531
 126    -0.0746276724054821
 127    -0.0314139731101759
 128    -0.0301360199968536
 129    -0.2036400449764661
 130     0.0750757396147528
 131     0.0338075343860998
 132    -0.0252276409121649
 133    -0.2023728086825444
 134    -0.0731668545949104
 135    -0.0318415288144395
 136     0.0352992379148537
 137    -0.1940520438523002
 138     0.0739506547228439
 139     0.0271792524933914
 140     0.0368965785528270
 141    -0.2296338052873182
 142     0.0019022771825446
 143    -0.0027632330236237
 144     0.0706114007643886
 145    -0.0594192303613848
 146     0.0001333950061787
 147    -0.0035780309103864
 148     0.0467314831308031
 149     0.0017456153453538
 150     0.0007276605084014
 151    -0.0001236972768330
 152     0.0000625087974144
 153    -0.0003647281024162
 154     0.0025869215987397
 155    -0.0005811589897444
 156     0.0062957000002139
 157    -0.0089081074767331
 158    -0.0000166654634812
 159     0.0000398859937381
 160     0.0001211377128046
 161    -0.0000216112405420
 162     0.0000721120708111
 163     0.0014588013065919
 164    -0.0009698878405221
 165    -0.0002098158677065
 166    -0.0012884573968704
 167     0.0001423421380746
 168    -0.0000531095159067
 169    -0.0000074084507830
 170    -0.0000047449142078
 171    -0.0000794756140141
 172     0.0004695217404586
 173     0.0000401366207707
 174    -0.0007077848154482
 175     0.0000763968611796
 176    -0.0000068212171955
 177     0.0000454362385560
 178    -0.0001193259469866
 179     0.0000214936976837
 180     0.0000575143105497
 181     0.0013228987756079
 182     0.0010363087468210
 183    -0.0002706246133185
 184    -0.0010286414434246
 Sym= 4A
 Ene= -0.302689
 Spin= Alpha
 Occup= 2.000000
  1     0.0000069434543031
  2    -0.0000412155214627
  3    -0.0001269089157810
  4    -0.0000464627772108
  5    -0.0000987207237138
  6    -0.0024410767575269
  7    -0.0016401078405369
  8     0.0004201012786903
  9    -0.0019754840909338
 10     0.0003231129623528
 11     0.0000876521929383
 12     0.0000134471058002
 13    -0.0000113484357752
 14     0.0003899026737475
 15    -0.0020100099212013
 16     0.0001133902981653
 17    -0.0003696725789882
 18    -0.0031041471605012
 19     0.0000229820387092
 20    -0.0000499665485256
 21     0.0001224473119802
 22     0.0000456734414662
 23    -0.0000728255981862
 24    -0.0021778289517779
 25     0.0017500865345594
 26     0.0004870341747213
 27    -0.0015466232187037
 28     0.0053633204010618
 29    -0.0040922268096668
 30     0.0001128763563234
 31     0.0001010025972630
 32    -0.0003600867337741
 33    -0.0063254371836928
 34    -0.0013444306367420
 35    -0.0135345330111755
 36    -0.0127912723011378
 37     0.0573657674304237
 38     0.0041827965186534
 39     0.0585560093335852
 40     0.0039318418007525
 41     0.0446653042494298
 42     0.0031858835985931
 43     0.0475978782452735
 44     0.0021170891965459
 45    -0.0420366480385932
 46    -0.0041834258712417
 47    -0.0443297067301016
 48    -0.0043620909758163
 49    -0.0567373775634564
 50    -0.0047765353545292
 51    -0.0544528536197342
 52    -0.0046013457818079
 53     0.0543072501994193
 54     0.0045911881074075
 55     0.0565627150219016
 56     0.0047556725345901
 57     0.0446991921784251
 58     0.0043561640809124
 59     0.0424388418917987
 60     0.0041793904911762
 61    -0.0484273771846285
 62    -0.0021844867825300
 63    -0.0456828971638118
 64    -0.0032430618702827
 65    -0.0598097377444359
 66    -0.0040064949524247
 67    -0.0586755815329488
 68    -0.0042551892840646
 69     0.1696998446595578
 70     0.0002291492270445
 71     0.0121889196001227
 72     0.0736980330172064
 73     0.2752864454438967
 74     0.0025753401732087
 75     0.0016001201090090
 76    -0.0193253788526268
 77     0.1346589699055206
 78     0.0501456417477069
 79    -0.0217338179531579
 80    -0.0585493636730496
 81     0.1380008247664749
 82    -0.0484772655707662
 83     0.0180236497199574
 84    -0.0628124247837548
 85    -0.0803426756829635
 86    -0.0354629884389079
 87     0.0112354163118283
 88    -0.0964989187035015
 89    -0.0838263801521796
 90     0.0358845363139805
 91    -0.0208763512722054
 92    -0.0977633330380165
 93    -0.2901842530979640
 94    -0.0021220767559941
 95    -0.0029346803630345
 96    -0.0971710367238792
 97    -0.3429133983446284
 98    -0.0013219203695694
 99     0.0031653269641332
 100     0.0648939594224256
 101    -0.1380270066114169
 102     0.0571008147179620
 103     0.0026946531979879
 104     0.0955017700305533
 105    -0.1334017766122449
 106    -0.0553702111868700
 107     0.0007254885434286
 108     0.0967149946383380
 109     0.1317670773010384
 110    -0.0550034682876329
 111    -0.0004919742314760
 112     0.0978493964230618
 113     0.1362583475788188
 114     0.0567232745404587
 115    -0.0026801177628593
 116     0.0965371964954962
 117     0.3435346289736153
 118    -0.0011647671055858
 119    -0.0032614779044652
 120     0.0670060699639351
 121     0.2936995868919005
 122    -0.0020979528812564
 123     0.0029228708722904
 124    -0.0978182112546292
 125     0.0847462077608934
 126     0.0363026535748759
 127     0.0210566095059985
 128    -0.0990825497569420
 129     0.0813669511286614
 130    -0.0361382017817592
 131    -0.0113920109974366
 132    -0.0979536080482070
 133    -0.1406082394227404
 134    -0.0496056535467197
 135    -0.0183629214095941
 136    -0.0638135897320789
 137    -0.1373829904302332
 138     0.0510291189370614
 139     0.0220923292299086
 140    -0.0597129934633641
 141    -0.2807994613840465
 142     0.0025295666779472
 143    -0.0015663341698714
 144    -0.0198438114925165
 145    -0.1733838651928777
 146     0.0004106843369234
 147    -0.0125506770567785
 148     0.0751796244131282
 149     0.0054787508167592
 150     0.0041985952068651
 151    -0.0001608128103117
 152     0.0001741791432437
 153     0.0003895316935031
 154     0.0064435790943662
 155    -0.0014688067991435
 156     0.0138065209532774
 157    -0.0129910012336211
 158     0.0000070513818712
 159     0.0000410718285540
 160     0.0001282152159866
 161    -0.0000474239364111
 162     0.0001003789278479
 163     0.0024967729813230
 164    -0.0016645159025861
 165    -0.0004247300924124
 166    -0.0020220820377279
 167     0.0003314820537013
 168    -0.0000892520282218
 169    -0.0000167871889302
 170    -0.0000115919078935
 171    -0.0004010558890742
 172     0.0020634960205350
 173     0.0000997343285215
 174     0.0003977298886083
 175    -0.0031949550501424
 176     0.0000242011478955
 177     0.0000515682944509
 178    -0.0001248004531160
 179     0.0000468865155256
 180     0.0000740120808666
 181     0.0022051907813242
 182     0.0017859275746897
 183    -0.0005006985320582
 184    -0.0015578288453153
 Sym= 5A
 Ene= -0.297920
 Spin= Alpha
 Occup= 2.000000
  1     0.0000067464802009
  2    -0.0000291472600006
  3    -0.0001173890658063
  4    -0.0000798431398526
  5    -0.0001032185557891
  6    -0.0032078626634651
  7    -0.0021996629431923
  8     0.0005381296155050
  9    -0.0024376534086456
 10     0.0005772221923585
 11     0.0001269130751347
 12     0.0000169535459529
 13    -0.0000159691866202
 14     0.0007805952643526
 15    -0.0036098647510828
 16     0.0001229426245155
 17    -0.0014404827596161
 18    -0.0061340070119067
 19     0.0000239122926837
 20    -0.0000399273365685
 21     0.0001143318287660
 22     0.0000792807671346
 23    -0.0000773379389443
 24    -0.0029013435539710
 25     0.0023297180971672
 26     0.0005979904399233
 27    -0.0019537060415941
 28     0.0093414879966290
 29    -0.0079377187629731
 30     0.0001502386647085
 31     0.0001773155666315
 32    -0.0013312181091358
 33    -0.0090246840734198
 34    -0.0016394040045973
 35    -0.0191234596972084
 36    -0.0157424860264523
 37     0.0996984221783513
 38     0.0046825832325175
 39     0.1012715517660368
 40     0.0043727248578020
 41     0.0478125976379635
 42     0.0022720362491535
 43     0.0498436528978672
 44     0.0008630821970502
 45    -0.0537904468634267
 46    -0.0023585559091978
 47    -0.0555328303816835
 48    -0.0024645444915808
 49     0.0055402093971125
 50    -0.0008955301663251
 51     0.0074572791728312
 52    -0.0008426962031746
 53     0.0080089278330833
 54    -0.0007998731805983
 55     0.0069194278801328
 56    -0.0008030692590092
 57    -0.0545149207847349
 58    -0.0023679400738447
 59    -0.0531835319583496
 60    -0.0022938645239852
 61     0.0494264224222972
 62     0.0008867830455819
 63     0.0474423533193012
 64     0.0022326303165669
 65     0.1007378411370994
 66     0.0043355925679740
 67     0.0992728168235670
 68     0.0046318758786093
 69     0.2824716463047935
 70     0.0004785605296597
 71     0.0221397843716945
 72     0.1003440256891990
 73     0.3450438012505329
 74     0.0032834037973075
 75     0.0022064172876089
 76    -0.0817253425940359
 77     0.1078649984165651
 78     0.0524156575807901
 79    -0.0246886478794901
 80    -0.1104861721286380
 81     0.1081820667763496
 82    -0.0498039554863285
 83     0.0176281659638960
 84    -0.1151877134153091
 85    -0.1567103413104506
 86    -0.0531731922428697
 87     0.0194065612162051
 88    -0.0709266088441840
 89    -0.1605761807824325
 90     0.0534619234574385
 91    -0.0260669903782636
 92    -0.0695221076052653
 93    -0.2989493300463714
 94    -0.0013281771102493
 95     0.0017879236900611
 96     0.0059245942592467
 97    -0.0643284504858038
 98    -0.0004926039186957
 99     0.0051003920135677
 100     0.1339816864763756
 101     0.0802455723258431
 102    -0.0093946530021055
 103     0.0017751822685230
 104     0.0686481816198740
 105     0.0835385408441887
 106     0.0109396733915260
 107     0.0010405863782523
 108     0.0668547062156324
 109     0.0850047577216743
 110    -0.0119462607469668
 111     0.0009934656300105
 112    -0.0650770461724860
 113     0.0835038154320404
 114     0.0102784264348947
 115     0.0016439869292479
 116    -0.0671111414087509
 117    -0.0588891510410941
 118    -0.0000856996366264
 119     0.0049127206217650
 120    -0.1331929883440522
 121    -0.2945760955267303
 122     0.0009218322083012
 123     0.0016835651405007
 124    -0.0072544879948455
 125    -0.1584382395610046
 126    -0.0528846695986107
 127    -0.0256358112430342
 128     0.0683452940205436
 129    -0.1556191236955856
 130     0.0527342281099367
 131     0.0191858135852627
 132     0.0697150038713758
 133     0.1073714717449826
 134     0.0496118124182634
 135     0.0174192074879816
 136     0.1140715369675832
 137     0.1065007002313678
 138    -0.0517699496776079
 139    -0.0244403749839525
 140     0.1098653179511826
 141     0.3424587666323509
 142    -0.0032139050844246
 143     0.0019944677572549
 144     0.0814965261615247
 145     0.2810158407162058
 146    -0.0007754386926043
 147     0.0221437722478482
 148    -0.0996150194389434
 149    -0.0092886597963652
 150    -0.0079279753031023
 151     0.0002274176363897
 152    -0.0003100893650171
 153    -0.0013616435822859
 154    -0.0089506345598256
 155     0.0017712747220414
 156    -0.0189894013811334
 157     0.0155642104419167
 158    -0.0000066202102139
 159    -0.0000274570217336
 160    -0.0001146760936509
 161     0.0000795048200518
 162    -0.0001014407539196
 163    -0.0031975672322440
 164     0.0021735095184703
 165     0.0005277100055947
 166     0.0024295975178734
 167    -0.0005780028492400
 168     0.0001259140830846
 169     0.0000232528793324
 170     0.0000156906172530
 171     0.0007838470717711
 172    -0.0036104949622798
 173    -0.0000889342103408
 174    -0.0014618637200993
 175     0.0061398789295501
 176    -0.0000242861464116
 177    -0.0000405870183753
 178     0.0001141047949107
 179    -0.0000794807639539
 180    -0.0000770677842429
 181    -0.0028600089284519
 182    -0.0023161709724355
 183     0.0005967338027333
 184     0.0019147593537544
 Sym= 6A
 Ene= -0.292141
 Spin= Alpha
 Occup= 2.000000
  1     0.0000197146722508
  2    -0.0000088726464664
  3     0.0000094736172156
  4     0.0000012991157403
  5     0.0000165218776048
  6     0.0005096703887534
  7     0.0000118393947576
  8     0.0001865291440845
  9     0.0006946212335457
 10     0.0000226105548492
 11    -0.0000082793431069
 12    -0.0000787907551909
 13    -0.0000030428400735
 14     0.0000539426668897
 15     0.0000089047935988
 16     0.0000662592870658
 17    -0.0004212020761908
 18    -0.0003383986060521
 19    -0.0000005700915722
 20     0.0000137312361411
 21    -0.0000136429528801
 22    -0.0000010752584292
 23    -0.0000073048224675
 24    -0.0001022672438593
 25    -0.0002887167053956
 26    -0.0000716515861403
 27    -0.0002214271419894
 28    -0.0001958551868760
 29    -0.0000438992092096
 30    -0.0004166098664691
 31    -0.0006906033076476
 32    -0.0002028286304259
 33     0.0003799152462399
 34     0.0028192858925504
 35     0.0002181839901586
 36     0.0019046985194902
 37     0.0130327771889103
 38     0.0006137303940544
 39    -0.0035937736691321
 40    -0.0000695536285921
 41     0.0575781128592682
 42     0.0033261616652678
 43    -0.0590021474320294
 44    -0.0027390211740693
 45     0.0959150664386776
 46     0.0061197839127015
 47    -0.0973276950033179
 48    -0.0059703861991184
 49    -0.1328855065192766
 50    -0.0070924720134953
 51     0.1364370692856702
 52     0.0071470471984871
 53    -0.1366008180664612
 54    -0.0071788307624120
 55     0.1332583540918258
 56     0.0071084285974592
 57     0.0985155760471708
 58     0.0060134719944304
 59    -0.0967735699575981
 60    -0.0061374635851766
 61     0.0596428531661512
 62     0.0027842893612076
 63    -0.0585012161448026
 64    -0.0033525381976787
 65     0.0035037690121504
 66     0.0000711197520061
 67    -0.0134153738462606
 68    -0.0006216612336985
 69     0.0095976997246460
 70    -0.0171548634580708
 71     0.0070287285447296
 72     0.0012971993769515
 73     0.0083627580372558
 74    -0.0717596327620453
 75     0.0295927519448039
 76    -0.0048569154130297
 77     0.1611918512738976
 78    -0.0122784169522488
 79     0.0080613960538793
 80     0.0472246342468872
 81    -0.1619972666934872
 82    -0.0168523035809521
 83     0.0045871983717386
 84    -0.0533615680779013
 85     0.2145094213484573
 86    -0.0156844936684957
 87     0.0014313200047617
 88    -0.0118873440521596
 89    -0.2164391435279195
 90    -0.0196260834589780
 91     0.0039952773465596
 92     0.0158707549411365
 93     0.0070360046863439
 94    -0.1407781716478763
 95     0.0451648447700692
 96     0.0013137225105234
 97     0.0118389921308574
 98    -0.1870626432966236
 99     0.0093164370418651
 100     0.0009594945985150
 101    -0.3196820723239018
 102    -0.0343907381159148
 103     0.0044848472508742
 104    -0.0614326855955548
 105     0.3295294399015792
 106    -0.0283178298505837
 107     0.0021505543560450
 108     0.0555033523369014
 109    -0.3301389578477700
 110    -0.0281564811153316
 111    -0.0021206346494602
 112     0.0554322787789157
 113     0.3197208019978698
 114    -0.0346175647357174
 115    -0.0044530691615753
 116    -0.0609736865914967
 117    -0.0118864841638603
 118    -0.1875072184403223
 119    -0.0090936474142224
 120     0.0014782227450725
 121    -0.0059619127993883
 122    -0.1422970623045187
 123    -0.0455414981693435
 124     0.0017086297336881
 125     0.2196077488987082
 126    -0.0194558750147954
 127    -0.0039934275660607
 128     0.0160738764618071
 129    -0.2163726677959583
 130    -0.0162798484749870
 131    -0.0015346262737767
 132    -0.0123303914333014
 133     0.1640444404436966
 134    -0.0170272597766997
 135    -0.0045428416880461
 136    -0.0541920364178370
 137    -0.1632985245502704
 138    -0.0124120494375664
 139    -0.0081719411611374
 140     0.0475110334268236
 141    -0.0087613152223616
 142    -0.0727479968039425
 143    -0.0299027116053486
 144    -0.0051175863230541
 145    -0.0102350994539650
 146    -0.0174055395339388
 147    -0.0071745888112232
 148     0.0014637889768416
 149    -0.0001664754187311
 150     0.0000796002700051
 151     0.0004231012257027
 152    -0.0007035731539480
 153     0.0002062633441028
 154    -0.0003573181595478
 155     0.0028560391060671
 156    -0.0001592211845012
 157     0.0018518806314685
 158     0.0000196676828190
 159     0.0000089922431934
 160    -0.0000091100168201
 161     0.0000009558191419
 162    -0.0000163415388734
 163    -0.0005034453070200
 164     0.0000017017010528
 165    -0.0001899668949276
 166     0.0006943638040398
 167     0.0000255882105324
 168     0.0000084503648348
 169     0.0000801563728256
 170    -0.0000031545040369
 171    -0.0000583645888508
 172     0.0000039647524892
 173     0.0000676899210188
 174     0.0004280758457596
 175    -0.0003610165698380
 176    -0.0000008411771615
 177    -0.0000139061463112
 178     0.0000134147776230
 179    -0.0000007396867502
 180     0.0000076481022721
 181     0.0001165190011596
 182    -0.0002820533669873
 183     0.0000713765387397
 184    -0.0002330308300251
 Sym= 7A
 Ene= -0.289799
 Spin= Alpha
 Occup= 2.000000
  1    -0.0000301262135745
  2     0.0000289319753696
  3    -0.0000157916135595
  4    -0.0001141458682383
  5    -0.0000297623580691
  6    -0.0025141337929516
  7    -0.0018087848935892
  8     0.0003125131627445
  9    -0.0016132261091265
 10     0.0008591388153820
 11     0.0001357726959923
 12     0.0000126779543107
 13    -0.0000162101972078
 14     0.0013327532626808
 15    -0.0046344439299265
 16     0.0000347115286182
 17    -0.0027914905893840
 18    -0.0084920809569896
 19    -0.0000218271245038
 20     0.0000216156806526
 21     0.0000176320170265
 22     0.0001141675024247
 23    -0.0000227013634014
 24    -0.0023692982780782
 25     0.0018763097215162
 26     0.0003057779573109
 27    -0.0014047400675370
 28     0.0118401092711603
 29    -0.0117595499878535
 30     0.0001045342945623
 31     0.0002230834882287
 32    -0.0031831255563360
 33    -0.0074826418950862
 34    -0.0008868229572263
 35    -0.0166157530435599
 36    -0.0104004240196786
 37     0.1266040817934211
 38     0.0024877908551839
 39     0.1275979168437335
 40     0.0022808211386139
 41     0.0130835705014160
 42     0.0004051623278817
 43     0.0092763779198267
 44    -0.0006893253270277
 45    -0.0328321343439209
 46     0.0001076106521221
 47    -0.0306032042594022
 48     0.0002495626837503
 49     0.0554237016755628
 50     0.0005291979637940
 51     0.0446886423557115
 52     0.0001086401405195
 53    -0.0437376419299756
 54    -0.0000460702400759
 55    -0.0564571311762928
 56    -0.0005926188823893
 57     0.0276134376185414
 58    -0.0003661858148379
 59     0.0356906262143303
 60     0.0000048607366810
 61    -0.0117048628440412
 62     0.0005950017191657
 63    -0.0104101343204634
 64    -0.0002765023772284
 65    -0.1281420029787731
 66    -0.0022769276171460
 67    -0.1264864189780594
 68    -0.0024490398129076
 69     0.3342472123289771
 70     0.0005644200567065
 71     0.0302874200973356
 72     0.0793782461636627
 73     0.2386958928283132
 74     0.0011646270907287
 75     0.0036971462647703
 76    -0.1564984470435641
 77    -0.0269281487617590
 78     0.0261945694649420
 79    -0.0145193005244842
 80    -0.1243550868146708
 81    -0.0373207227463260
 82    -0.0235497952248297
 83     0.0081245402104145
 84    -0.1251898466359344
 85    -0.1500840002018196
 86    -0.0214445162687213
 87     0.0115964068450658
 88     0.0452392859791757
 89    -0.1498484359197333
 90     0.0213763851808282
 91    -0.0050526357286051
 92     0.0524193528139346
 93    -0.0166001339537194
 94     0.0032798773895855
 95     0.0075141425881771
 96     0.1571868986546004
 97     0.2932910009713935
 98     0.0071201857033726
 99     0.0009558752447434
 100     0.0165549647292055
 101     0.1528385652240167
 102    -0.0581640393011120
 103    -0.0004537034666872
 104    -0.0834285690437040
 105     0.1258733183015497
 106     0.0590964634587365
 107    -0.0013498170830089
 108    -0.0912601541357325
 109    -0.1240771695035326
 110     0.0591225952527335
 111     0.0012114882751530
 112    -0.0908101133471620
 113    -0.1538685394892787
 114    -0.0581272505805477
 115     0.0005779186119520
 116    -0.0848685790736698
 117    -0.2940536140388867
 118     0.0089074638345303
 119    -0.0005277208945466
 120     0.0158877170036937
 121     0.0154236701145800
 122     0.0071367980469175
 123    -0.0059643813080696
 124     0.1579213179243134
 125     0.1424815129993275
 126     0.0219693779884767
 127     0.0052192820135566
 128     0.0515459232929168
 129     0.1573711347736760
 130    -0.0206198403558508
 131    -0.0113680891759277
 132     0.0472830842168804
 133     0.0310062887306400
 134    -0.0230470417962133
 135    -0.0077768257278264
 136    -0.1234904036215809
 137     0.0345537671144598
 138     0.0263141965593540
 139     0.0148187056451344
 140    -0.1260659077875589
 141    -0.2381960617291815
 142     0.0041892686222876
 143    -0.0021349209820743
 144    -0.1569486724646443
 145    -0.3348342597163205
 146     0.0016775627759002
 147    -0.0301429736088330
 148     0.0793080799855280
 149     0.0118723233717015
 150     0.0118339957917609
 151    -0.0002238910189447
 152     0.0004531346923763
 153     0.0032313398839481
 154     0.0074930390111428
 155    -0.0011447840510977
 156     0.0166314913878975
 157    -0.0104423806833691
 158    -0.0000310882024329
 159    -0.0000309502382077
 160     0.0000138277251977
 161    -0.0001147958839219
 162     0.0000279357130987
 163     0.0025518671331623
 164    -0.0018025756377167
 165    -0.0002966119880532
 166    -0.0016492784780884
 167     0.0008681213475794
 168    -0.0001363086098999
 169    -0.0000280112111963
 170    -0.0000152275495416
 171    -0.0013490290347563
 172     0.0046739550694176
 173    -0.0000178792401419
 174     0.0028088502863931
 175    -0.0085427052413933
 176    -0.0000222914697796
 177    -0.0000200536392316
 178    -0.0000201930332863
 179     0.0001157091450581
 180     0.0000241454178801
 181     0.0023509327961113
 182     0.0018948798429095
 183    -0.0003067242362385
 184    -0.0013785773605703
 Sym= 8A
 Ene= -0.289034
 Spin= Alpha
 Occup= 2.000000
  1     0.0000338450525158
  2    -0.0000188159957459
  3     0.0000106088068215
  4     0.0000057486202279
  5     0.0000246179151321
  6     0.0010902187262937
  7     0.0001115089669273
  8     0.0003305530908813
  9     0.0013982814253043
 10     0.0000112524545588
 11    -0.0000222118949385
 12    -0.0001627875688620
 13    -0.0000092364090192
 14     0.0000553278209451
 15     0.0002175140185354
 16     0.0001688793394438
 17    -0.0006987122904788
 18    -0.0002763403796385
 19     0.0000015556589218
 20     0.0000234869874193
 21    -0.0000256080438155
 22    -0.0000070561001694
 23    -0.0000069249135181
 24    -0.0000765113233347
 25    -0.0006430648061367
 26    -0.0001516889414722
 27    -0.0003205599560376
 28    -0.0010369314424317
 29     0.0004948588332405
 30    -0.0008629601756304
 31    -0.0014661407423462
 32    -0.0002890896038312
 33     0.0010997349565502
 34     0.0054528142770190
 35     0.0012553858681525
 36     0.0041768479497894
 37     0.0205094898083618
 38     0.0008760845076366
 39    -0.0138206572336152
 40    -0.0001868908556266
 41     0.1057037552177492
 42     0.0044771810848960
 43    -0.1105978429149360
 44    -0.0034611362346294
 45     0.1257860352631179
 46     0.0049053340580670
 47    -0.1238763387186293
 48    -0.0046480310604971
 49    -0.0416312112689687
 50    -0.0026774026469424
 51     0.0397507505251662
 52     0.0026751692418251
 53     0.0391750260874230
 54     0.0026213381152378
 55    -0.0385735195898834
 56    -0.0026034584719178
 57    -0.1244949680802673
 58    -0.0046053738820402
 59     0.1247591706622457
 60     0.0048476896345648
 61    -0.1104243689578908
 62    -0.0034991882095442
 63     0.1062991450937279
 64     0.0044628631875433
 65    -0.0108691357684558
 66    -0.0001455750581711
 67     0.0236300554743994
 68     0.0009232620945726
 69     0.0023644823712375
 70    -0.0347057088379734
 71     0.0127400786087615
 72    -0.0023552344374861
 73     0.0010909834305839
 74    -0.1363142068089844
 75     0.0565665901339550
 76    -0.0028220412237022
 77     0.2854324655002184
 78    -0.0221208890002411
 79     0.0148961667679866
 80     0.0702564070757275
 81    -0.2883978943581706
 82    -0.0264584107727798
 83     0.0090196945867218
 84    -0.0689993063201945
 85     0.3124569865324896
 86    -0.0231858884961779
 87     0.0054254580604959
 88    -0.0543934051729947
 89    -0.3018390174499767
 90    -0.0314282532357042
 91     0.0139813654022204
 92     0.0588054285946483
 93     0.0131655115797386
 94    -0.1580905347935699
 95     0.0621770261683082
 96    -0.0049159519766149
 97     0.0014849048748415
 98    -0.0777920822840972
 99     0.0136593243961431
 100    -0.0040068887801139
 101    -0.0644123132069434
 102    -0.0007048138198344
 103     0.0057553091418373
 104     0.0381726424016886
 105     0.0585408401430229
 106    -0.0012573886152885
 107     0.0044374480976354
 108    -0.0401797531789788
 109     0.0573045039042469
 110    -0.0005948626971643
 111     0.0044694631580825
 112     0.0433970949260359
 113    -0.0563566150078437
 114     0.0016714987832944
 115     0.0056640928197925
 116    -0.0371213948540769
 117     0.0085438769437592
 118     0.0755038739967485
 119     0.0135874696499801
 120     0.0034378717876974
 121     0.0120396015178412
 122     0.1576847780658308
 123     0.0621912486122030
 124     0.0006754601460910
 125    -0.3056709466878602
 126     0.0304837822884440
 127     0.0138802680609080
 128    -0.0602959283300860
 129     0.3082701779635726
 130     0.0241729610177938
 131     0.0058038394790145
 132     0.0535876663297967
 133    -0.2897536657562758
 134     0.0268392548587574
 135     0.0090119779792167
 136     0.0719230365155724
 137     0.2848509062881104
 138     0.0216131198980347
 139     0.0146438699364937
 140    -0.0671550621838956
 141     0.0063206402433374
 142     0.1365387271811967
 143     0.0565774004517050
 144     0.0065950574588071
 145     0.0103901852851963
 146     0.0347962842507422
 147     0.0135081204245013
 148     0.0004934105061780
 149     0.0007226036706843
 150     0.0001712326057060
 151    -0.0008673789896148
 152     0.0014768051204325
 153    -0.0003611294275641
 154     0.0009009772366093
 155    -0.0054476458236968
 156     0.0008071282119881
 157    -0.0038366937702191
 158    -0.0000324970347285
 159    -0.0000180304583086
 160     0.0000097422443775
 161    -0.0000025956329607
 162     0.0000234963480288
 163     0.0010181808588843
 164    -0.0000558916009773
 165     0.0003387195933177
 166    -0.0013520890585623
 167    -0.0000351986034761
 168    -0.0000196331878771
 169    -0.0001637271546722
 170     0.0000097612889701
 171     0.0000920447509358
 172     0.0000954942470872
 173    -0.0001716768048674
 174    -0.0007630411588595
 175     0.0004918946043881
 176    -0.0000004189195588
 177     0.0000242502668648
 178    -0.0000250060774077
 179     0.0000039552069095
 180    -0.0000075572452470
 181    -0.0001484005787819
 182     0.0005869571198769
 183    -0.0001441940078022
 184     0.0003650081238304
 Sym= 9A
 Ene= -0.285442
 Spin= Alpha
 Occup= 2.000000
  1    -0.0000286408304938
  2     0.0000212187148811
  3     0.0000023039325493
  4    -0.0000048927231515
  5    -0.0000121894454347
  6    -0.0010863659439100
  7    -0.0001193056483008
  8    -0.0003198339074524
  9    -0.0013819949494417
 10    -0.0000073876433285
 11     0.0000237142152056
 12     0.0001800494624174
 13     0.0000149965006916
 14    -0.0000478032623939
 15    -0.0002541969452706
 16    -0.0002220058968581
 17     0.0006725262792005
 18     0.0001919038512993
 19    -0.0000049989943091
 20    -0.0000194963296309
 21     0.0000221652255170
 22     0.0000085882690087
 23     0.0000005094763161
 24     0.0000619015985779
 25     0.0006490320661490
 26     0.0001477542449679
 27     0.0002822260606064
 28     0.0013272267534819
 29    -0.0007183634822742
 30     0.0009552890990204
 31     0.0016597067791089
 32     0.0002789238785556
 33    -0.0011169431199979
 34    -0.0054494961310140
 35    -0.0013791830234468
 36    -0.0041633798760308
 37    -0.0209077170923016
 38    -0.0006945126030864
 39     0.0167306800203856
 40     0.0001018945878470
 41    -0.1034896019278252
 42    -0.0028692273073568
 43     0.1080529922039002
 44     0.0019248903123465
 45    -0.0719418009978997
 46    -0.0004967743968372
 47     0.0688300180304154
 48     0.0002929863378597
 49    -0.0985994809273989
 50    -0.0011137225988578
 51     0.1028287883357525
 52     0.0011026170351191
 53    -0.1026764411493103
 54    -0.0011192982024166
 55     0.0990310778581469
 56     0.0011308208399718
 57    -0.0681441422332855
 58    -0.0002693869946212
 59     0.0712925266061870
 60     0.0004639618032615
 61    -0.1070640795182538
 62    -0.0019246786288091
 63     0.1030652989577489
 64     0.0028285241073718
 65    -0.0174573366342829
 66    -0.0001150392287228
 67     0.0200832203602890
 68     0.0006747821842809
 69     0.0017094314221930
 70     0.0372996993629549
 71    -0.0132353259901317
 72     0.0036982874761376
 73     0.0023532686505870
 74     0.1368374353911606
 75    -0.0571100397152766
 76     0.0009796913132955
 77    -0.2659449229299771
 78     0.0194590399898842
 79    -0.0133912892164472
 80    -0.0457113351884940
 81     0.2672242604857059
 82     0.0222972021570200
 83    -0.0094800186038898
 84     0.0409142742596444
 85    -0.2156070524644017
 86     0.0183880579499526
 87    -0.0074256470274698
 88     0.0813527788223749
 89     0.2030472516429633
 90     0.0243051240884667
 91    -0.0178462923953291
 92    -0.0820954134115074
 93    -0.0074548839942551
 94     0.0619948769164531
 95    -0.0386984725143108
 96     0.0077253414697183
 97     0.0094258504153185
 98    -0.1174788653971573
 99    -0.0079719819656925
 100     0.0046223838037423
 101    -0.2622785087127952
 102    -0.0330614920029966
 103    -0.0011540608641734
 104    -0.0762500751180733
 105     0.2738799805264550
 106    -0.0269909419667418
 107    -0.0014774642406366
 108     0.0711558692139029
 109    -0.2735068091504835
 110    -0.0267030114956824
 111     0.0015753217114216
 112     0.0704580087502418
 113     0.2629444351156455
 114    -0.0334177390136279
 115     0.0011930586821498
 116    -0.0766724503722030
 117    -0.0105720410235928
 118    -0.1175960374858140
 119     0.0082210773803213
 120     0.0037962197442844
 121     0.0057996500152673
 122     0.0611967640849912
 123     0.0383068213494159
 124     0.0082337405742591
 125    -0.2010112422324929
 126     0.0236335339277956
 127     0.0176227675071153
 128    -0.0809278911755479
 129     0.2138468469103652
 130     0.0187938205670528
 131     0.0074991015505131
 132     0.0815912260024868
 133    -0.2646850468898018
 134     0.0219190060416723
 135     0.0092238476632744
 136     0.0399696247734593
 137     0.2646035628017264
 138     0.0194463142062999
 139     0.0133976751368606
 140    -0.0457527364995749
 141    -0.0033335280417911
 142     0.1359739820997515
 143     0.0565560417680185
 144    -0.0000875130120402
 145    -0.0035126364286333
 146     0.0371286224476859
 147     0.0129832323244090
 148     0.0039269582631384
 149     0.0013506926825713
 150     0.0007462171466365
 151    -0.0009600354529057
 152     0.0016746251566721
 153    -0.0002424296740774
 154     0.0011131572532145
 155    -0.0054274371700512
 156     0.0013815256850133
 157    -0.0040647393159793
 158    -0.0000282084648516
 159    -0.0000213516844769
 160    -0.0000030171481365
 161    -0.0000052450910944
 162     0.0000113823565935
 163     0.0010755793960038
 164    -0.0001126833257565
 165     0.0003183194220011
 166    -0.0013677458116332
 167    -0.0000045957681205
 168    -0.0000251326322504
 169    -0.0001806470407747
 170     0.0000150128830047
 171     0.0000417317097059
 172     0.0002692092225182
 173    -0.0002245439191758
 174    -0.0006448556862198
 175     0.0001501933820213
 176    -0.0000048163006414
 177     0.0000193151108032
 178    -0.0000218591447385
 179     0.0000090209120928
 180    -0.0000005351705458
 181    -0.0000677032278096
 182     0.0006397548751466
 183    -0.0001457856708043
 184     0.0002867232947396
 Sym= 10A
 Ene= -0.278855
 Spin= Alpha
 Occup= 2.000000
  1     0.0001159828204211
  2    -0.0000913235865188
  3    -0.0000607473386047
  4     0.0001623351691261
  5    -0.0000525949622612
  6     0.0014161454758649
  7     0.0010797212150284
  8     0.0001348649177835
  9     0.0005628318975641
 10    -0.0012349350084710
 11    -0.0001493069253212
 12    -0.0000188364213710
 13     0.0000175451337705
 14    -0.0021741355811014
 15     0.0047562245464165
 16     0.0000740189011906
 17     0.0034433582147599
 18     0.0090716806380519
 19     0.0001105054059729
 20    -0.0000856576909147
 21     0.0000564774439944
 22    -0.0001617521577802
 23    -0.0000473944541958
 24     0.0014147288115275
 25    -0.0010921137830187
 26     0.0001835773311274
 27     0.0005942268228808
 28    -0.0125982498105964
 29     0.0151762695017355
 30    -0.0000259241009752
 31    -0.0003155221137395
 32     0.0057186274215991
 33     0.0031588555100168
 34     0.0001126046135508
 35     0.0097045490179088
 36     0.0033124366838142
 37    -0.1364474922691805
 38    -0.0003482712389108
 39    -0.1380963518122440
 40    -0.0003133315042202
 41     0.0358967087163498
 42    -0.0000954273953821
 43     0.0379388159025369
 44     0.0003293581631194
 45     0.0110012012330804
 46     0.0008522213406700
 47    -0.0011630635025916
 48     0.0006896168638539
 49     0.0216045402211207
 50     0.0004120630672860
 51     0.0293861970358709
 52     0.0005561842000888
 53     0.0303944697960222
 54     0.0005683668992632
 55     0.0216720170671427
 56     0.0004190825344187
 57    -0.0005121718768742
 58     0.0007029092008584
 59     0.0107383897910175
 60     0.0008593843715203
 61     0.0386882383894188
 62     0.0003350732043933
 63     0.0355953439444120
 64    -0.0000943008211617
 65    -0.1378809234358830
 66    -0.0003061265112439
 67    -0.1366424173951678
 68    -0.0003385162780514
 69    -0.3297031405792561
 70    -0.0022933355001233
 71    -0.0355397817966408
 72    -0.0301112619294989
 73    -0.0753261742019656
 74    -0.0034890012116941
 75    -0.0047585220150045
 76     0.1877531500508162
 77     0.1501941135527934
 78    -0.0057360519419360
 79     0.0035919953163341
 80     0.0832496224054262
 81     0.1488169044803774
 82     0.0017030966967779
 83    -0.0025411005369787
 84     0.0740149091834718
 85     0.0610341920678712
 86    -0.0449696407138078
 87     0.0104099135474321
 88    -0.1337571694792995
 89     0.0370130412039472
 90     0.0432197734762608
 91    -0.0258639576800925
 92    -0.1368597828504141
 93    -0.2583213347849092
 94    -0.0097786576409671
 95    -0.0030657328555133
 96    -0.1316991843653245
 97    -0.1843731095522774
 98    -0.0057487048934625
 99     0.0067344383065608
 100     0.1707086911786820
 101     0.1057057126487764
 102     0.0317053385788421
 103     0.0023555872341754
 104     0.1226546850629569
 105     0.1172487615508384
 106    -0.0288215461078369
 107     0.0028693851332171
 108     0.1146129097918611
 109     0.1201254485304254
 110     0.0284409285222118
 111     0.0026819220869550
 112    -0.1141946096855501
 113     0.1057750153810601
 114    -0.0309519039156745
 115     0.0022870215413096
 116    -0.1212864698964446
 117    -0.1820368292793715
 118     0.0062392330277684
 119     0.0065364960934624
 120    -0.1711752459569978
 121    -0.2584670767224793
 122     0.0094129544386729
 123    -0.0032800845266832
 124     0.1309970285188042
 125     0.0380928296788926
 126    -0.0434434914984303
 127    -0.0259906541608551
 128     0.1373111038965533
 129     0.0595413633167445
 130     0.0453545094478836
 131     0.0104343446201569
 132     0.1334631507664573
 133     0.1506174042254471
 134    -0.0018675559582274
 135    -0.0024590648801023
 136    -0.0740923108215930
 137     0.1493445230424066
 138     0.0053310528550461
 139     0.0035050156519648
 140    -0.0826959736370391
 141    -0.0744899249639861
 142     0.0024681982983812
 143    -0.0048470832169885
 144    -0.1878111059418484
 145    -0.3295367619313248
 146     0.0022943373511768
 147    -0.0356329265749739
 148     0.0297869450508603
 149     0.0125565967016271
 150     0.0152081813396443
 151    -0.0001242413872377
 152     0.0005506208650304
 153     0.0057697199743332
 154     0.0031247184520648
 155    -0.0001621232422266
 156     0.0096462173529191
 157    -0.0032552158497574
 158    -0.0001159828672650
 159    -0.0000923198258403
 160    -0.0000627988277211
 161    -0.0001627076122614
 162    -0.0000562767183884
 163     0.0014157260634854
 164    -0.0010724186100614
 165     0.0001407876738748
 166    -0.0005503321971015
 167     0.0012462799631511
 168    -0.0001489056817685
 169    -0.0000370476063556
 170    -0.0000157806271061
 171    -0.0021980416769112
 172     0.0047765042017934
 173    -0.0001253194919199
 174     0.0034657597873786
 175    -0.0090999984801260
 176    -0.0001114468795860
 177    -0.0000845344349534
 178     0.0000529012685901
 179     0.0001632538666499
 180    -0.0000441785708316
 181     0.0014051136199796
 182     0.0010895930114981
 183     0.0001925537199623
 184    -0.0005883570461479
 Sym= 11A
 Ene= -0.266933
 Spin= Alpha
 Occup= 2.000000
  1     0.0000087111571234
  2     0.0000429492896180
  3     0.0001119493094406
  4     0.0000130888339536
  5     0.0000913611715937
  6    -0.0009468430338696
  7    -0.0000491722900894
  8    -0.0002993617285697
  9    -0.0012700974811105
 10    -0.0000596216783099
 11     0.0000305181778620
 12     0.0004074760155080
 13     0.0000784016378012
 14    -0.0001190226036909
 15    -0.0001946798339522
 16    -0.0005594430611852
 17     0.0007317909730330
 18     0.0002486054277928
 19    -0.0000261856836182
 20     0.0000075513090427
 21     0.0000039892105598
 22     0.0000139583038671
 23    -0.0000497530520441
 24     0.0001200380206259
 25     0.0006114715109004
 26     0.0001146706984161
 27     0.0001856821571384
 28     0.0028076371700596
 29    -0.0015365397033683
 30     0.0020175175094865
 31     0.0037576835529930
 32     0.0005264280849531
 33    -0.0004277253352829
 34    -0.0056322538547241
 35    -0.0010526740056277
 36    -0.0035551632623568
 37    -0.0387239464307604
 38     0.0000864423579949
 39     0.0315154836816341
 40    -0.0004557948022564
 41    -0.1166288351458466
 42     0.0003660442924726
 43     0.1170791455645116
 44    -0.0010491562616304
 45     0.0858383122646105
 46     0.0012171281067298
 47    -0.0910287774554396
 48    -0.0013739420675325
 49    -0.1370810796194726
 50    -0.0005182142605880
 51     0.1320077183809404
 52     0.0004243293839612
 53     0.1315579053069857
 54     0.0004327717087656
 55    -0.1376652405038571
 56    -0.0005175517612696
 57    -0.0914034007472418
 58    -0.0013788588682848
 59     0.0862876288678916
 60     0.0012102776558936
 61     0.1171945297716547
 62    -0.0010340219317585
 63    -0.1180189197787465
 64     0.0003788151642920
 65     0.0328881041992171
 66    -0.0004566813557312
 67    -0.0380794905293091
 68     0.0000922127741616
 69     0.0041140837668767
 70     0.0644455643991381
 71    -0.0212347468177534
 72     0.0072906519863172
 73     0.0059523838355274
 74     0.1742283359291767
 75    -0.0715251733953444
 76    -0.0003324213423185
 77    -0.2267209864890066
 78     0.0099049149797642
 79    -0.0036471115673987
 80     0.0636884347579616
 81     0.2189959335577403
 82     0.0086462408101203
 83    -0.0085210963592637
 84    -0.0740576914424911
 85     0.0986517931300382
 86     0.0038688657436190
 87    -0.0016085940278659
 88     0.1382487983678277
 89    -0.1099086578331171
 90    -0.0003392288711645
 91    -0.0135688351213194
 92    -0.1287861544634177
 93     0.0097340426083143
 94    -0.1693837867162127
 95     0.0480405825529161
 96     0.0059941676524308
 97     0.0136419004556935
 98    -0.2316193677713932
 99     0.0143314820084178
 100    -0.0041481788421587
 101    -0.2167248840514029
 102    -0.0089857285888810
 103     0.0064085356490830
 104     0.1239582797543551
 105     0.2073436840518296
 106    -0.0028608420683586
 107     0.0036111055261533
 108    -0.1370518214462292
 109     0.2056865167558411
 110     0.0032961934600699
 111     0.0038265986591824
 112     0.1367372040177437
 113    -0.2176625287343430
 114     0.0085502804665864
 115     0.0062060417353281
 116    -0.1250124616338560
 117     0.0119668147314381
 118     0.2318276991791236
 119     0.0139610262802272
 120     0.0051359017274803
 121     0.0116452206547599
 122     0.1704928702591182
 123     0.0481394395504781
 124    -0.0055926997349425
 125    -0.1103171407100423
 126     0.0010646250590312
 127    -0.0132986240617978
 128     0.1285896852167561
 129     0.1000755483116526
 130    -0.0047508042148844
 131    -0.0018905264004393
 132    -0.1397661375841341
 133     0.2189930590942422
 134    -0.0085535039768786
 135    -0.0084722413459987
 136     0.0744856626256724
 137    -0.2292126517376316
 138    -0.0100747025229656
 139    -0.0036590241390378
 140    -0.0643536430288621
 141     0.0055829688345490
 142    -0.1753794006095322
 143    -0.0717341004617440
 144     0.0016705724232137
 145     0.0061377466644099
 146    -0.0650109192764523
 147    -0.0211503184473003
 148    -0.0070087045441140
 149    -0.0028306956084010
 150    -0.0015815715285251
 151     0.0020518964757499
 152    -0.0038371678524751
 153     0.0004456618806332
 154    -0.0004071748004627
 155     0.0056762377744534
 156    -0.0010207602938393
 157     0.0034718036344446
 158    -0.0000083690246716
 159     0.0000430963827943
 160     0.0001122650333310
 161    -0.0000119442443260
 162     0.0000933798686030
 163    -0.0009445344055574
 164     0.0000393777261649
 165    -0.0003065950073741
 166     0.0012673936489440
 167     0.0000543876810084
 168     0.0000349010752035
 169     0.0004148848888166
 170    -0.0000794736698548
 171    -0.0001046416309380
 172    -0.0002148725306803
 173     0.0005685727330149
 174     0.0007105680338043
 175    -0.0002059001125262
 176     0.0000270451487174
 177     0.0000071157500545
 178     0.0000059194919479
 179    -0.0000155613557480
 180    -0.0000506679895428
 181     0.0001298098154747
 182    -0.0006056111810986
 183     0.0001086345125945
 184    -0.0001959844803126
 Sym= 12A
 Ene= -0.262593
 Spin= Alpha
 Occup= 2.000000
  1     0.0002619034833294
  2    -0.0001313293937040
  3    -0.0000389954860884
  4     0.0002635210231762
  5    -0.0001131226552387
  6     0.0005542953115257
  7     0.0004413030122675
  8     0.0007163590825998
  9    -0.0001770761304138
 10    -0.0019643308858729
 11    -0.0002075620770758
 12    -0.0000216582728836
 13     0.0000308605418316
 14    -0.0040024729447869
 15     0.0039569043250091
 16     0.0000896713842399
 17     0.0032395398542248
 18     0.0079998371475688
 19     0.0002455910556212
 20    -0.0001245448863806
 21     0.0000414354444016
 22    -0.0002589768182153
 23    -0.0001146075652000
 24     0.0006429408166496
 25    -0.0004109422045826
 26     0.0007862291470011
 27    -0.0000149539088628
 28    -0.0120012415395682
 29     0.0200055860027727
 30     0.0001789827338558
 31    -0.0003295439971538
 32     0.0102202601396319
 33    -0.0026044849470401
 34    -0.0004340909581566
 35     0.0014320806424082
 36    -0.0018644104925756
 37    -0.1473338037537039
 38     0.0000417997790063
 39    -0.1467140506874414
 40    -0.0000124488637066
 41     0.0589008844987349
 42    -0.0009024440708821
 43     0.0701889622867479
 44    -0.0007407650179973
 45    -0.0140456244029530
 46     0.0008166402384057
 47    -0.0316287077916345
 48     0.0008661661097641
 49     0.0542102725203126
 50    -0.0005226015331453
 51     0.0485426271226901
 52    -0.0002929218677361
 53    -0.0492824191485014
 54     0.0002866945656695
 55    -0.0535156382578891
 56     0.0005264662119497
 57     0.0319196721496022
 58    -0.0008567528498756
 59     0.0131816176782662
 60    -0.0008145702420071
 61    -0.0710557488261508
 62     0.0007462439877728
 63    -0.0581482024789351
 64     0.0008929182603751
 65     0.1459890311679440
 66     0.0000174696129580
 67     0.1474685978169593
 68    -0.0000445966448658
 69    -0.3018200717139956
 70    -0.0020962386919848
 71    -0.0439820046250554
 72     0.0422096373197341
 73     0.0882910377541180
 74     0.0026247296524097
 75    -0.0127445728035076
 76     0.1667661119553127
 77     0.1674542308886114
 78     0.0151567639920477
 79    -0.0114021635494838
 80    -0.0089598117915148
 81     0.1771324718698862
 82    -0.0197593904321293
 83     0.0006679248142471
 84    -0.0312198959880139
 85    -0.0720612308459257
 86    -0.0796865352592477
 87     0.0249374424762925
 88    -0.1127016809827247
 89    -0.1076858710842173
 90     0.0764343500980268
 91    -0.0380011698787952
 92    -0.1161777293657161
 93    -0.2642479372142639
 94    -0.0114578752293797
 95     0.0092621291943314
 96     0.0769440744302813
 97     0.1904792678333221
 98     0.0019549124302472
 99     0.0080661916729065
 100     0.1359370205784882
 101     0.1574376004487184
 102    -0.0546221775112597
 103     0.0022274953322218
 104    -0.0702751813513134
 105     0.1381906170844746
 106     0.0564781285468858
 107    -0.0007791524906257
 108    -0.0819225448488959
 109    -0.1390830406511037
 110     0.0566640688330994
 111     0.0005228319493691
 112    -0.0833413477521870
 113    -0.1559575006848562
 114    -0.0548686152646499
 115    -0.0022679272486512
 116    -0.0702262155462869
 117    -0.1915525441461443
 118     0.0006352579185868
 119    -0.0079380466617465
 120     0.1355071158359838
 121     0.2631749249255054
 122    -0.0124524321244883
 123    -0.0094240319237161
 124     0.0776075804340954
 125     0.1080554899556972
 126     0.0763182223584326
 127     0.0379665482585642
 128    -0.1167594663031765
 129     0.0714215163817205
 130    -0.0799142690578157
 131    -0.0248713791777878
 132    -0.1112113948728704
 133    -0.1787564811921583
 134    -0.0197233129131583
 135    -0.0006594870243256
 136    -0.0316832379439226
 137    -0.1656213428981535
 138     0.0152033398663307
 139     0.0113508977562733
 140    -0.0087734996584708
 141    -0.0886367780405305
 142     0.0042734608264683
 143     0.0131034256998424
 144     0.1663787310875404
 145     0.3010602317894289
 146    -0.0016333759750341
 147     0.0439883358729240
 148     0.0424452495973510
 149    -0.0118997734352096
 150    -0.0199902608679591
 151    -0.0000997062511980
 152    -0.0006066347290766
 153    -0.0102508796221364
 154     0.0026265413934729
 155    -0.0004643689794347
 156    -0.0013790367294733
 157    -0.0018830353697930
 158     0.0002620225553924
 159     0.0001315188030827
 160     0.0000401148938992
 161     0.0002636059000750
 162     0.0001170177406219
 163    -0.0005479214317789
 164     0.0004404630203830
 165    -0.0007175193019840
 166    -0.0001960450962343
 167    -0.0019786153541439
 168     0.0002062040204248
 169     0.0000535863391607
 170     0.0000276984755281
 171     0.0040352801847337
 172    -0.0039582222446054
 173     0.0001304548208177
 174    -0.0032473432008709
 175     0.0079958378007651
 176     0.0002453332239452
 177     0.0001224904895896
 178    -0.0000358623202618
 179    -0.0002602245921455
 180     0.0001098159119614
 181    -0.0006458956172327
 182    -0.0004070107504614
 183    -0.0007972512671239
 184    -0.0000054946624984
 Sym= 13A
 Ene= -0.256529
 Spin= Alpha
 Occup= 2.000000
  1     0.0000297409063467
  2     0.0000766965105128
  3     0.0002367570165036
  4     0.0000213605743612
  5     0.0002114448289292
  6    -0.0008279468711380
  7    -0.0000101706375811
  8    -0.0003233340920197
  9    -0.0011549676195142
 10    -0.0000288091199840
 11     0.0000525201805347
 12     0.0007350625452056
 13     0.0001592206876468
 14    -0.0000030123390333
 15    -0.0003143936808302
 16    -0.0008073573531678
 17     0.0006529186173534
 18    -0.0000248491867337
 19    -0.0000551291786723
 20     0.0000388493573648
 21    -0.0000072273254686
 22     0.0000342756701667
 23    -0.0000991713895143
 24     0.0001178569873782
 25     0.0005915359973967
 26     0.0000338138250631
 27     0.0001054601662939
 28     0.0048649187859101
 29    -0.0033057406084979
 30     0.0032839149723256
 31     0.0063845744953674
 32     0.0002749138907730
 33     0.0006330626130923
 34    -0.0055934540127428
 35    -0.0006553175858537
 36    -0.0029251424890129
 37    -0.0522353860424218
 38     0.0005904076453040
 39     0.0540430975989087
 40    -0.0007661718237948
 41    -0.1379947344638799
 42     0.0002875209983966
 43     0.1280684187495608
 44    -0.0007088214620165
 45     0.1378375145236873
 46    -0.0006547660704984
 47    -0.1410683931580902
 48     0.0004349626073438
 49     0.0139648688959942
 50    -0.0017638425163611
 51    -0.0228142392944748
 52     0.0017758433084308
 53     0.0230170390892665
 54    -0.0017705426379044
 55    -0.0157779382009942
 56     0.0017569556676543
 57     0.1404841296598143
 58    -0.0004494747354196
 59    -0.1375596157899277
 60     0.0006510920741575
 61    -0.1275322344702848
 62     0.0006886659714504
 63     0.1380892480066698
 64    -0.0002903691313370
 65    -0.0547254113843900
 66     0.0007622768330074
 67     0.0517521928663349
 68    -0.0005961436117890
 69     0.0177921457050871
 70     0.0945044327211467
 71    -0.0273196141331144
 72     0.0078958633388845
 73     0.0030390844917663
 74     0.2183552500492838
 75    -0.0857162474813280
 76    -0.0075215099827147
 77    -0.2273806934322136
 78     0.0038494847101088
 79     0.0065000166031175
 80     0.1372012456644039
 81     0.1978567099775793
 82     0.0008649370242811
 83    -0.0039182618953034
 84    -0.1466411298927483
 85     0.2320601296516473
 86    -0.0000522985744924
 87     0.0107582015802027
 88     0.1348910197251444
 89    -0.2319792700259964
 90    -0.0167729331577871
 91     0.0053221239176884
 92    -0.1123722961617400
 93     0.0248651988943000
 94    -0.2019723453666851
 95     0.0912181402152960
 96    -0.0060542211597200
 97    -0.0076632730950070
 98    -0.0223158521088668
 99     0.0271575663593902
 100    -0.0128640704066229
 101     0.0885800947424604
 102     0.0244758147762059
 103     0.0083747598796504
 104     0.0832907913141740
 105    -0.1091124865612269
 106     0.0178171840646884
 107     0.0057380961719111
 108    -0.0750118086788470
 109     0.1099347815860400
 110     0.0168302965148372
 111    -0.0058961288511671
 112    -0.0733693980522918
 113    -0.0909484776310627
 114     0.0256095749974607
 115    -0.0083796662943186
 116     0.0829789867547625
 117     0.0092495257672864
 118    -0.0208754729439962
 119    -0.0272401761919694
 120    -0.0126954587693201
 121    -0.0247235168321291
 122    -0.2015083622413389
 123    -0.0909245354275055
 124    -0.0066370171155540
 125     0.2312658222912198
 126    -0.0168840642855397
 127    -0.0054865073731877
 128    -0.1117718882053915
 129    -0.2324067641701371
 130     0.0001996526998526
 131    -0.0107136377268601
 132     0.1343072991484409
 133    -0.1969532338832220
 134     0.0007417243214913
 135     0.0039040627515588
 136    -0.1460582506643777
 137     0.2270315023293568
 138     0.0039235998128795
 139    -0.0065740297819827
 140     0.1375905364059985
 141    -0.0024292807707939
 142     0.2179706661787860
 143     0.0852989220403239
 144    -0.0081730632813217
 145    -0.0185623450310446
 146     0.0945465989013184
 147     0.0272289457993685
 148     0.0073778914390742
 149     0.0047651492270331
 150     0.0032219972115801
 151    -0.0033151023026739
 152     0.0064711490651129
 153    -0.0001958672529575
 154    -0.0006429875929311
 155    -0.0055889126527516
 156     0.0005957238261165
 157    -0.0028245204261186
 158     0.0000304307368020
 159    -0.0000749032769010
 160    -0.0002341728138333
 161     0.0000206425670532
 162    -0.0002126036851823
 163     0.0008158523052306
 164     0.0000020786960310
 165     0.0003267839254776
 166    -0.0011414873802386
 167    -0.0000311362203664
 168    -0.0000588309930036
 169    -0.0007437661646925
 170     0.0001604043990125
 171    -0.0000004670189553
 172     0.0003156526164598
 173    -0.0008127793899096
 174    -0.0006405000169318
 175    -0.0000335051346577
 176    -0.0000547603475669
 177    -0.0000364559956156
 178     0.0000020905809409
 179     0.0000354801266731
 180     0.0001014020748959
 181    -0.0001273442412724
 182     0.0005783415131317
 183    -0.0000274390716497
 184     0.0001127309717441
 Sym= 14A
 Ene= -0.252288
 Spin= Alpha
 Occup= 2.000000
  1    -0.0003245828149593
  2     0.0001162650387360
  3    -0.0000248129809126
  4    -0.0003266001550172
  5     0.0001366498150612
  6    -0.0005517368074382
  7    -0.0003086215862004
  8    -0.0009772081173542
  9     0.0000113606748603
 10     0.0023987989502860
 11     0.0002517882902420
 12     0.0000547277271041
 13    -0.0000314900664480
 14     0.0053153621876202
 15    -0.0027846463154276
 16    -0.0000254054596612
 17    -0.0024026689910935
 18    -0.0062302525859784
 19    -0.0003170657110820
 20     0.0001046356720077
 21     0.0000442144506983
 22     0.0003267923894903
 23     0.0001081305234184
 24    -0.0005094984682229
 25     0.0003440009763287
 26    -0.0009963273318564
 27     0.0000710850573374
 28     0.0099837582184095
 29    -0.0218369245146550
 30     0.0001478800949824
 31     0.0008054327007334
 32    -0.0129129591077011
 33     0.0046009981808746
 34    -0.0004165529184292
 35     0.0015149640038413
 36     0.0014817051098367
 37     0.1434485498516978
 38     0.0009386450796323
 39     0.1460773907695495
 40     0.0008647305970210
 41     0.0025042390074378
 42     0.0008239212576368
 43     0.0034952197353856
 44     0.0005621935855005
 45     0.0959404953128959
 46     0.0009039363725727
 47     0.0978863602829244
 48     0.0007750089278037
 49     0.1189080626224273
 50     0.0005838682291435
 51     0.1336326398500881
 52     0.0005957344318909
 53     0.1337747073265148
 54     0.0005918370230743
 55     0.1188034626209861
 56     0.0005949240216771
 57     0.0987719720403764
 58     0.0007749471478262
 59     0.0955616326723792
 60     0.0009058121475325
 61     0.0031455871272949
 62     0.0005673390992938
 63     0.0030757337655321
 64     0.0008224211380659
 65     0.1458652914772050
 66     0.0008750020254974
 67     0.1439798820046291
 68     0.0009410012117969
 69     0.2583322493785665
 70     0.0071449588301874
 71     0.0456507619767188
 72    -0.0867064172111302
 73    -0.1737255644094394
 74     0.0058585714783811
 75     0.0126681204844554
 76    -0.1297119814483380
 77    -0.0635274352082650
 78    -0.0836572163120296
 79     0.0442204374813331
 80     0.0756884832469376
 81    -0.0542740607199204
 82     0.0901004842493906
 83    -0.0274396525535370
 84     0.0899556567709222
 85     0.1507236884092504
 86    -0.0294422209785715
 87     0.0137448685231634
 88     0.0249905924118122
 89     0.1597496646993095
 90     0.0336099416455645
 91    -0.0110857769381836
 92     0.0167225760625407
 93     0.0125572907018155
 94    -0.0032674698558258
 95    -0.0057239189291025
 96    -0.1240095246277510
 97    -0.2415866049601786
 98    -0.0121594348199788
 99     0.0000291989503817
 100     0.0107939284132282
 101     0.1201060182394456
 102     0.1741343007616994
 103     0.0003343347656991
 104     0.1122000546700908
 105     0.1439818990408155
 106    -0.1721849221733792
 107     0.0029013861646195
 108     0.1017510577442185
 109     0.1449059637431370
 110     0.1721310343099490
 111     0.0023885243094684
 112    -0.1020526783659985
 113     0.1197007189168245
 114    -0.1739048632506755
 115     0.0005594692047239
 116    -0.1116650238453967
 117    -0.2414306067999158
 118     0.0121818361588567
 119    -0.0000654456596669
 120    -0.0110446125318336
 121     0.0120583633048659
 122     0.0024756379225595
 123    -0.0060600205787019
 124     0.1241412050018319
 125     0.1611163475674762
 126    -0.0339556922319097
 127    -0.0112337226514147
 128    -0.0169823875973007
 129     0.1499323634239774
 130     0.0297125345640175
 131     0.0137485532175076
 132    -0.0242905412765473
 133    -0.0550303766188521
 134    -0.0905648477477071
 135    -0.0274524763469600
 136    -0.0906017812470093
 137    -0.0625827225734547
 138     0.0838666725878818
 139     0.0442063003734469
 140    -0.0755492393153637
 141    -0.1743681862053417
 142    -0.0047554580195085
 143     0.0129112871526163
 144     0.1297896458186979
 145     0.2584473390464824
 146    -0.0067283661121757
 147     0.0456855361610764
 148     0.0871196506291103
 149    -0.0098931387202647
 150    -0.0218728196370526
 151     0.0002035677199254
 152    -0.0011086464532244
 153    -0.0129784654564644
 154     0.0046262569394419
 155     0.0003717806603238
 156     0.0015535824572616
 157    -0.0014952830802941
 158     0.0003263812209389
 159     0.0001165962876189
 160    -0.0000245192043444
 161     0.0003277581164831
 162     0.0001407002348345
 163    -0.0005470556012550
 164     0.0003108169809500
 165    -0.0009794354791173
 166    -0.0000284460564977
 167    -0.0024228651283994
 168     0.0002510262136990
 169     0.0000992722124079
 170     0.0000272381401725
 171     0.0053716833643820
 172    -0.0027850364281148
 173     0.0000570650998643
 174    -0.0024136697333951
 175     0.0062366875543792
 176     0.0003163156463717
 177     0.0001020504605626
 178     0.0000507269458131
 179    -0.0003288591643333
 180     0.0001032566364101
 181    -0.0005174868641980
 182    -0.0003410653311986
 183    -0.0010091441441906
 184    -0.0000577927827656
 Sym= 15A
 Ene= -0.245105
 Spin= Alpha
 Occup= 2.000000
  1     0.0002921291503324
  2    -0.0000691233379444
  3     0.0000707944704606
  4     0.0003122358319157
  5    -0.0001372374093292
  6     0.0006719906875252
  7     0.0003356223145110
  8     0.0008925553055321
  9     0.0003066068989421
 10    -0.0022845127959015
 11    -0.0002381440175889
 12    -0.0000611444832022
 13     0.0000217177359528
 14    -0.0053585475434791
 15     0.0014878485596100
 16    -0.0000643086037336
 17     0.0014004147199331
 18     0.0041251399492200
 19     0.0003152692512760
 20    -0.0000564195297887
 21    -0.0001295271245044
 22    -0.0003245461063527
 23    -0.0000542456170195
 24     0.0005563991242730
 25    -0.0004158222573112
 26     0.0008824030379090
 27     0.0001040997883926
 28    -0.0063568868340310
 29     0.0188792887976957
 30    -0.0007502337527581
 31    -0.0012071365664043
 32     0.0124723320375181
 33    -0.0038859742204656
 34     0.0011003502552303
 35    -0.0013858926209514
 36     0.0004433231916635
 37    -0.1184657549116053
 38    -0.0016388685438729
 39    -0.1217984191723138
 40    -0.0014587106974541
 41    -0.1145317706914671
 42    -0.0000913437977846
 43    -0.1229441699619683
 44     0.0001312766933446
 45    -0.1584895293517844
 46    -0.0000256710677768
 47    -0.1490190254184328
 48     0.0000683037417664
 49    -0.0450371464617691
 50    -0.0008909810662408
 51    -0.0443185509738741
 52    -0.0009657631111313
 53     0.0427469212700320
 54     0.0009703250049133
 55     0.0444985725089753
 56     0.0008974055045541
 57     0.1497370552272636
 58    -0.0000773491799770
 59     0.1600236479979709
 60     0.0000068049810164
 61     0.1245728695329557
 62    -0.0001279441828870
 63     0.1150293573186793
 64     0.0000895889449732
 65     0.1223628924436236
 66     0.0014675685049593
 67     0.1186472615776761
 68     0.0016538278917789
 69    -0.1828124536164676
 70    -0.0094393239143937
 71    -0.0390756168688828
 72     0.1025345812162828
 73     0.2170309918087723
 74    -0.0097700588078289
 75    -0.0101054886845676
 76     0.0929950153543162
 77    -0.0872571470373944
 78     0.1752758059261003
 79    -0.0840768223380982
 80    -0.0957028574407762
 81    -0.1002979940389834
 82    -0.1815673311585418
 83     0.0676155596098032
 84    -0.1000882485221724
 85    -0.1681089760955466
 86     0.1648876983681610
 87    -0.0678667034353531
 88     0.0664054543118512
 89    -0.1530232117973018
 90    -0.1672006992788291
 91     0.0736865438808797
 92     0.0707748696370629
 93     0.1787234745190158
 94     0.0086109988398673
 95    -0.0048256497327013
 96    -0.0005414659430593
 97    -0.0062563208625244
 98     0.0018158490879606
 99    -0.0051212510103552
 100    -0.0814145739589521
 101    -0.0638555303930684
 102    -0.0017066091599947
 103     0.0019839741246950
 104     0.0263624327320651
 105    -0.0597825895038017
 106    -0.0001359804097480
 107    -0.0032156163095104
 108     0.0327354857585417
 109     0.0576423989043864
 110    -0.0018240599017570
 111     0.0033212247009025
 112     0.0333912672866273
 113     0.0635684507968604
 114    -0.0000374611867198
 115    -0.0019130957741290
 116     0.0280322414581756
 117     0.0083462872541121
 118     0.0009455525365529
 119     0.0051447692983641
 120    -0.0816750365265470
 121    -0.1795954632778064
 122     0.0089194547015410
 123     0.0050930963258247
 124    -0.0016618385216174
 125     0.1530642026968622
 126    -0.1683866156083276
 127    -0.0740831807205298
 128     0.0715705770507982
 129     0.1695082009266486
 130     0.1666072401902083
 131     0.0683591803636604
 132     0.0664239436911713
 133     0.1020535708826976
 134    -0.1829705252741309
 135    -0.0678517120923164
 136    -0.0994928127099832
 137     0.0875015437831645
 138     0.1764679341440137
 139     0.0845311458228514
 140    -0.0970789860553266
 141    -0.2182881977424217
 142    -0.0106580075204426
 143     0.0097103735781370
 144     0.0933181057590179
 145     0.1832483691565669
 146    -0.0099069120618942
 147     0.0389137174306080
 148     0.1031193387290601
 149    -0.0062994278236252
 150    -0.0189553030210963
 151     0.0007997343006477
 152    -0.0015308690834898
 153    -0.0125592498367525
 154     0.0039166341529638
 155     0.0010901215200499
 156     0.0014047235646664
 157     0.0004448059565078
 158     0.0002948453029163
 159     0.0000697973272912
 160    -0.0000699484993855
 161     0.0003139611394121
 162     0.0001423598886184
 163    -0.0006732257101508
 164     0.0003384885458905
 165    -0.0008963116613560
 166     0.0002998904610500
 167    -0.0023110683130447
 168     0.0002384842253129
 169     0.0001154126399676
 170     0.0000156949015829
 171     0.0054236958395659
 172    -0.0014828581901132
 173    -0.0000383554577170
 174    -0.0014066655947721
 175     0.0041319497573429
 176     0.0003145691124051
 177     0.0000537808434147
 178     0.0001361693379050
 179    -0.0003272083002497
 180     0.0000491711237102
 181    -0.0005646164151220
 182    -0.0004165293579963
 183    -0.0008935508945040
 184     0.0001170460290878
 Sym= 16A
 Ene= -0.243474
 Spin= Alpha
 Occup= 2.000000
  1    -0.0000609996406839
  2    -0.0000822714773904
  3    -0.0002992560372864
  4    -0.0000485515684613
  5    -0.0002659729456850
  6     0.0002514441744108
  7    -0.0000463632405773
  8     0.0001341743987082
  9     0.0004724932773891
 10     0.0001607132604037
 11    -0.0000424673128502
 12    -0.0009067552350179
 13    -0.0002067044561126
 14     0.0002392947319161
 15     0.0001035070184150
 16     0.0006256115073917
 17    -0.0004432092253276
 18    -0.0001424448629719
 19     0.0000367953192502
 20    -0.0000469173921801
 21     0.0000095231740970
 22    -0.0000226672691505
 23     0.0001295355362737
 24    -0.0000586135859345
 25    -0.0002624337958418
 26     0.0000213913554131
 27     0.0000598602087448
 28    -0.0043227102208335
 29     0.0023330345294138
 30    -0.0034722661207373
 31    -0.0071120090884386
 32    -0.0007224854683566
 33    -0.0013823135578603
 34     0.0026991149937207
 35    -0.0000777469642056
 36     0.0010440419672577
 37     0.0567205558244649
 38    -0.0006530568954687
 39    -0.0465645954006853
 40     0.0006104195938388
 41     0.0944094353840637
 42     0.0006476584806983
 43    -0.0832229658939674
 44    -0.0005444440198959
 45    -0.0999512461700231
 46     0.0005057527863912
 47     0.1010844100238497
 48    -0.0005445733792433
 49    -0.1568513619481928
 50    -0.0003046372987826
 51     0.1305911726255238
 52     0.0003664951989594
 53     0.1307520009386714
 54     0.0003726452244504
 55    -0.1572088418247119
 56    -0.0003068802386954
 57     0.1014252434322623
 58    -0.0005481234847725
 59    -0.0988484324366313
 60     0.0005026764774783
 61    -0.0822399680474148
 62    -0.0005506030333809
 63     0.0948676626619226
 64     0.0006474966304755
 65    -0.0464224707069227
 66     0.0006142337867662
 67     0.0569486997460623
 68    -0.0006463828631156
 69    -0.0047517494479843
 70    -0.0884751789335913
 71     0.0249604595030608
 72    -0.0101505985738096
 73    -0.0082320818605531
 74    -0.1689950509639105
 75     0.0618491794373578
 76     0.0016486492297897
 77     0.1186769892671796
 78     0.0020518221139095
 79    -0.0146370984753136
 80    -0.1427998168642426
 81    -0.0978337716365902
 82     0.0114100810150916
 83    -0.0065391522976375
 84     0.1533610930491373
 85    -0.2074074342279359
 86     0.0088874813005783
 87    -0.0236579428537555
 88    -0.0411318975559369
 89     0.2106306986121427
 90     0.0205561519898498
 91    -0.0264880830239930
 92     0.0260798395617818
 93    -0.0117295326801836
 94     0.0886389984566337
 95    -0.0825283876229518
 96     0.0098933364590989
 97     0.0171748811204252
 98    -0.2176974752062502
 99    -0.0321947315494586
 100     0.0091819287300693
 101    -0.2510929107988151
 102    -0.0278320011193823
 103    -0.0165864677597070
 104     0.1287406291712821
 105     0.2266597966335853
 106     0.0044908402318056
 107    -0.0173289625788930
 108    -0.1441533586675754
 109     0.2266170089535591
 110    -0.0045161004637908
 111    -0.0171217001062719
 112     0.1445016310604698
 113    -0.2509499880091247
 114     0.0280762351532882
 115    -0.0168722536373340
 116    -0.1289835097980360
 117     0.0174183063136742
 118     0.2176899179517618
 119    -0.0326996221032878
 120    -0.0092676684810843
 121    -0.0122183265822392
 122    -0.0881199894565927
 123    -0.0823378275210608
 124    -0.0101407748403868
 125     0.2105407013823455
 126    -0.0213181470241566
 127    -0.0269050610896926
 128    -0.0255048723020765
 129    -0.2063662472479287
 130    -0.0080974589422843
 131    -0.0233759261356710
 132     0.0407927007919027
 133    -0.0968837882089802
 134    -0.0124098706846778
 135    -0.0067982940240387
 136    -0.1531102310753730
 137     0.1185728558326556
 138    -0.0011002094867893
 139    -0.0142918495912303
 140     0.1424706727037358
 141    -0.0087689440794217
 142     0.1684912529873852
 143     0.0615378944501995
 144    -0.0015351956000235
 145    -0.0042334295090230
 146     0.0883932391450492
 147     0.0251135876409271
 148     0.0101581743067126
 149     0.0041688751432966
 150     0.0021168958755148
 151    -0.0034923269240220
 152     0.0071713803408821
 153    -0.0007168854172645
 154    -0.0013450831551489
 155    -0.0026837276392689
 156    -0.0000974116687398
 157    -0.0009990698766250
 158     0.0000635514357622
 159    -0.0000791659581376
 160    -0.0002954937561437
 161     0.0000494559227734
 162    -0.0002656602007444
 163     0.0002424149646461
 164     0.0000537699204606
 165     0.0001310158340493
 166    -0.0004634051026370
 167    -0.0001787685684765
 168    -0.0000489524089752
 169    -0.0009135405339904
 170     0.0002078575012262
 171     0.0002703701949331
 172     0.0000961781756824
 173    -0.0006267443549691
 174    -0.0004447844893003
 175     0.0001617650241835
 176    -0.0000343040284303
 177    -0.0000432840589642
 178     0.0000038127796859
 179     0.0000221324024656
 180     0.0001322905347811
 181    -0.0000637015337485
 182     0.0002534304419929
 183     0.0000204774316985
 184    -0.0000570221694688
 Sym= 17A
 Ene= -0.240972
 Spin= Alpha
 Occup= 2.000000
  1    -0.0001854659946878
  2     0.0000314584406409
  3    -0.0000537520632261
  4    -0.0002091263779117
  5     0.0001084436707945
  6    -0.0005268127417766
  7    -0.0002686489479646
  8    -0.0005664186397816
  9    -0.0003387461362506
 10     0.0015370461799158
 11     0.0001608441342237
 12     0.0000769294018037
 13    -0.0000026784142439
 14     0.0037289346410365
 15    -0.0005938497288512
 16     0.0000467715585678
 17    -0.0006364022265689
 18    -0.0021932012210814
 19    -0.0002216863080704
 20     0.0000208114419083
 21     0.0001272417245447
 22     0.0002272862603798
 23     0.0000074631222095
 24    -0.0004396483864998
 25     0.0003404361671665
 26    -0.0005560295608500
 27    -0.0001790998366068
 28     0.0031919084603408
 29    -0.0120395218982976
 30     0.0009630058184991
 31     0.0012919753588615
 32    -0.0084463932576375
 33     0.0022833457014572
 34    -0.0009739304060036
 35     0.0005551729309968
 36    -0.0011122206347990
 37     0.0720948690455081
 38     0.0013423705741465
 39     0.0780709247452705
 40     0.0011568647714144
 41     0.1257628448637979
 42    -0.0002262745146150
 43     0.1397128938497059
 44    -0.0002711102642294
 45     0.1213951965036286
 46    -0.0009054383855487
 47     0.1045304398952007
 48    -0.0009325362788290
 49    -0.1092801652752865
 50     0.0008846851047168
 51    -0.1286378400016997
 52     0.0008002560615969
 53    -0.1289027533829225
 54     0.0007927378995750
 55    -0.1096177473684158
 56     0.0008711375911242
 57     0.1034133098681020
 58    -0.0009345908880225
 59     0.1203884101857102
 60    -0.0009097849895831
 61     0.1387924978732084
 62    -0.0002643893287592
 63     0.1244147310509302
 64    -0.0002226461735208
 65     0.0771822118633862
 66     0.0011443114049588
 67     0.0710025201201053
 68     0.0013306672282624
 69     0.1009762746684962
 70     0.0104591203167982
 71     0.0240013834185513
 72    -0.0762508299717169
 73    -0.1685847871339554
 74     0.0137783568230612
 75     0.0038881410776067
 76    -0.0551177975849546
 77     0.1142616757806897
 78    -0.1613521046403131
 79     0.0761421947732753
 80     0.0717449840291408
 81     0.1301593963327888
 82     0.1647878068693693
 83    -0.0646397839513188
 84     0.0608494234535400
 85     0.1207748865353280
 86    -0.1556387207404576
 87     0.0666192191524191
 88    -0.0768514552873852
 89     0.0889159955450760
 90     0.1545263722157256
 91    -0.0711613008599023
 92    -0.0780850644402446
 93    -0.1527427208595921
 94    -0.0084041693253241
 95     0.0107896456151976
 96     0.0756518122688535
 97     0.1637759555005629
 98     0.0142648688595638
 99     0.0050269087068280
 100     0.0658090110171528
 101    -0.0973895077803125
 102    -0.1734265781177129
 103    -0.0021238010043133
 104    -0.0871092689496497
 105    -0.1286392656237076
 106     0.1736464774304803
 107     0.0016323675621746
 108    -0.0735862224685386
 109    -0.1295992504610498
 110    -0.1734158069681936
 111     0.0020882095013739
 112     0.0733944433611148
 113    -0.0977442245071276
 114     0.1733680547400746
 115    -0.0024027100742325
 116     0.0867213919905772
 117     0.1635721671352649
 118    -0.0144733448476046
 119     0.0049010855270054
 120    -0.0648768389767751
 121    -0.1506505099420638
 122     0.0083142812029989
 123     0.0106787322294152
 124    -0.0757638285228474
 125     0.0876112012810406
 126    -0.1529193341573372
 127    -0.0703380406838051
 128     0.0774115862200452
 129     0.1195110274016219
 130     0.1544878432318360
 131     0.0659132152379449
 132     0.0756697441972375
 133     0.1294985832032024
 134    -0.1632676756124146
 135    -0.0637851293944777
 136    -0.0594344343380513
 137     0.1129159539318569
 138     0.1597731818798314
 139     0.0752824955574029
 140    -0.0714266066195018
 141    -0.1668024078240967
 142    -0.0141361119908287
 143     0.0036029057401461
 144     0.0544262416619385
 145     0.0995039206334272
 146    -0.0105946422486990
 147     0.0234907200448313
 148     0.0754414316350995
 149    -0.0030812554487776
 150    -0.0118755416557494
 151     0.0009650671494030
 152    -0.0014759045761475
 153    -0.0083704587497868
 154     0.0022589112985375
 155     0.0009500631001968
 156     0.0005504733749729
 157     0.0010940489960787
 158     0.0001846184876581
 159     0.0000309984838252
 160    -0.0000534344377293
 161     0.0002070494304759
 162     0.0001094641653207
 163    -0.0005191141141345
 164     0.0002661859329725
 165    -0.0005587133372377
 166     0.0003294860100319
 167    -0.0015290953472893
 168     0.0001587475371053
 169     0.0001137822098800
 170    -0.0000015394913694
 171     0.0037114638230167
 172    -0.0005765531589316
 173    -0.0000324817998861
 174    -0.0006293281240730
 175     0.0021585552326581
 176     0.0002171153118375
 177     0.0000182136307889
 178     0.0001300344275899
 179    -0.0002252836320529
 180     0.0000040870969396
 181    -0.0004379216139742
 182    -0.0003349575017313
 183    -0.0005530877420718
 184     0.0001845736496506
 Sym= 18A
 Ene= -0.226845
 Spin= Alpha
 Occup= 2.000000
  1     0.0003068096103893
  2     0.0000091354911508
  3     0.0002404038242155
  4     0.0003783448394317
  5    -0.0000519826065831
  6     0.0001355210546172
  7    -0.0000394104757142
  8     0.0009695261890651
  9    -0.0001206965626432
 10    -0.0024394599454232
 11    -0.0002683447689246
 12    -0.0001849077264261
 13     0.0000243451736494
 14    -0.0066542324541223
 15    -0.0008175457818767
 16     0.0000548386053278
 17     0.0001654146030602
 18     0.0002521347461696
 19     0.0002538862980874
 20     0.0000312714583850
 21    -0.0002394026058591
 22    -0.0003652059543413
 23    -0.0000456705130467
 24     0.0001617594595276
 25     0.0000480068223508
 26     0.0009804801770898
 27    -0.0000718974493516
 28    -0.0026229314272647
 29     0.0195212420276597
 30     0.0003961558529340
 31    -0.0011669406766258
 32     0.0145896669575777
 33    -0.0074647397737572
 34    -0.0002517523406809
 35    -0.0068018248366765
 36    -0.0014402635561702
 37    -0.0915768484514231
 38    -0.0022002802901354
 39    -0.1022353040719791
 40    -0.0021967505265112
 41     0.1265108568827240
 42    -0.0005080313480763
 43     0.1248742026433929
 44    -0.0005285228124762
 45     0.0991624874377993
 46    -0.0010065024270276
 47     0.1051900230301942
 48    -0.0009360124563945
 49     0.1811194835187725
 50    -0.0006960177156375
 51     0.1853730004664001
 52    -0.0006242319461916
 53     0.1849542952390917
 54    -0.0006316142946659
 55     0.1806258683663694
 56    -0.0007050534800529
 57     0.1050394629210223
 58    -0.0009385611292963
 59     0.0992776140275978
 60    -0.0010067710326091
 61     0.1249570240501222
 62    -0.0005296747025711
 63     0.1268066868320536
 64    -0.0005014505498944
 65    -0.1021392529693025
 66    -0.0022046429386617
 67    -0.0919074432317150
 68    -0.0022124284361648
 69    -0.1327083988361313
 70    -0.0122543971898607
 71    -0.0381640414479213
 72     0.1101848047046416
 73     0.0967645107287600
 74    -0.0100105908788946
 75    -0.0170874096116303
 76    -0.0155988380830862
 77     0.1047636830353425
 78    -0.0774643610354643
 79     0.0197553023535427
 80    -0.1006846920394259
 81     0.0923265231759014
 82     0.0739448926240203
 83    -0.0433176989376835
 84    -0.0992047849703566
 85    -0.0479340542247580
 86    -0.1434930899776736
 87     0.0566860474494917
 88     0.0345664389667997
 89    -0.0446412683188494
 90     0.1425590384475257
 91    -0.0586683031304094
 92     0.0502286933162638
 93    -0.0260931760116892
 94     0.0024222082153627
 95     0.0096024450079488
 96     0.2406338271040007
 97     0.0634593806393454
 98    -0.0053837921465139
 99    -0.0059202741986932
 100    -0.2115795467183731
 101     0.0390856157122932
 102     0.1891224863944203
 103    -0.0014243636885990
 104    -0.1155096746101140
 105     0.0465643068444407
 106    -0.1922531142383017
 107    -0.0022893788453174
 108    -0.1146395846644811
 109     0.0459303837234661
 110     0.1921726455295121
 111    -0.0026383755403583
 112     0.1143328247304045
 113     0.0382309469306000
 114    -0.1892401981539032
 115    -0.0008813192281283
 116     0.1150434061116784
 117     0.0633618583406526
 118     0.0056127828949178
 119    -0.0057361357592963
 120     0.2121091242983014
 121    -0.0255805887149331
 122    -0.0025954063693170
 123     0.0094039580087693
 124    -0.2410750019185590
 125    -0.0446232780093391
 126    -0.1425379900073075
 127    -0.0585454168198603
 128    -0.0501333753234997
 129    -0.0482391214063109
 130     0.1436577969646207
 131     0.0564913471023477
 132    -0.0352992015964225
 133     0.0926250442901003
 134    -0.0737525720420343
 135    -0.0432539166519827
 136     0.0993734940139044
 137     0.1045925569657977
 138     0.0778812307985832
 139     0.0197191634097196
 140     0.1009489356501408
 141     0.0969049783285261
 142     0.0098799609876174
 143    -0.0171498814210302
 144     0.0156575697319030
 145    -0.1328754099164635
 146     0.0120355665773920
 147    -0.0380289569840662
 148    -0.1104813447235921
 149     0.0025445824097957
 150     0.0195425145753420
 151     0.0003769742893336
 152     0.0014384728202116
 153     0.0146169221306345
 154    -0.0074895628770141
 155     0.0003040262308425
 156    -0.0068276854603824
 157     0.0014223068982730
 158    -0.0003087650285440
 159     0.0000083177181779
 160     0.0002394505641816
 161    -0.0003789733514089
 162    -0.0000556747182169
 163     0.0001322737959067
 164     0.0000344221341098
 165     0.0009711643479126
 166     0.0001264379475877
 167     0.0024622267157529
 168    -0.0002674951568570
 169    -0.0002420909357547
 170    -0.0000192697399185
 171    -0.0067161401412758
 172    -0.0008402696628309
 173    -0.0000526794165267
 174     0.0001592368747757
 175    -0.0002314655375627
 176    -0.0002496522462582
 177     0.0000350331022940
 178    -0.0002446083006434
 179     0.0003661544698938
 180    -0.0000413125603492
 181     0.0001718096713282
 182    -0.0000487925756440
 183     0.0009882751211073
 184     0.0000592092164880
 Sym= 19A
 Ene= -0.207474
 Spin= Alpha
 Occup= 2.000000
  1     0.0004338104836040
  2     0.0003389439547288
  3     0.0009021459094957
  4     0.0007718074018191
  5     0.0001134983098673
  6     0.0006639374133491
  7     0.0001655252223163
  8     0.0013539307352814
  9     0.0004043096701400
 10    -0.0042404137000881
 11    -0.0004769732620009
 12    -0.0003969060894829
 13     0.0000447121635606
 14    -0.0136472916452365
 15    -0.0050909374447194
 16    -0.0001193767802784
 17    -0.0017638411601876
 18    -0.0045158854303654
 19     0.0003381889567252
 20     0.0003999180498889
 21    -0.0009320385311049
 22    -0.0007479247775663
 23     0.0001894556043063
 24     0.0006717971442779
 25    -0.0001652492272270
 26     0.0013340541335546
 27     0.0003709899971062
 28     0.0069670516676201
 29     0.0294574885846314
 30     0.0005149607608821
 31    -0.0025404104404487
 32     0.0272106002202836
 33    -0.0099887458150279
 34     0.0000000248764263
 35    -0.0104637208074966
 36     0.0021741496357388
 37    -0.1219318077505915
 38    -0.0048605321571058
 39    -0.1381505317750115
 40    -0.0049429535665813
 41     0.1502152389968737
 42     0.0001030100606011
 43     0.1524707109340759
 44     0.0002095953637682
 45     0.1158924046844850
 46    -0.0003119216523221
 47     0.1218691834024384
 48    -0.0000462140069764
 49    -0.0443425580518857
 50    -0.0033056951526911
 51    -0.0446007534361356
 52    -0.0033343424911344
 53     0.0450069407397945
 54     0.0033325700893163
 55     0.0445935717230444
 56     0.0033011861051581
 57    -0.1212819096377763
 58     0.0000511019455194
 59    -0.1156821822505221
 60     0.0003021333871384
 61    -0.1523578972004050
 62    -0.0002171852582053
 63    -0.1503464560419012
 64    -0.0001170294338062
 65     0.1372531862562413
 66     0.0049352957781157
 67     0.1224389260377290
 68     0.0048772492301414
 69    -0.1181233227206295
 70    -0.0201741649229026
 71    -0.0645662701020137
 72     0.2029182378152730
 73     0.1124519131779644
 74    -0.0099885631447443
 75    -0.0391958585040240
 76    -0.1210105620064005
 77     0.0501811265490584
 78    -0.1196104733478722
 79     0.0284763202861391
 80    -0.1398126910759068
 81     0.0377117355871083
 82     0.1077474956741249
 83    -0.0707191899182267
 84    -0.1485503340244294
 85    -0.0040690758128783
 86    -0.1139405398506252
 87     0.0510851803082249
 88     0.1134576688777795
 89    -0.0043358363838381
 90     0.1057524036390557
 91    -0.0519821838698653
 92     0.1382835586403567
 93     0.1282795757966098
 94     0.0051158064368898
 95     0.0011921047203772
 96     0.1985992077680974
 97    -0.0283101574871121
 98     0.0027778078757592
 99    -0.0148842014932213
 100    -0.2352140529897375
 101    -0.1399849822005013
 102     0.0400363536030219
 103    -0.0097477469482862
 104     0.0433886242789955
 105    -0.1344349149031151
 106    -0.0429652667632435
 107     0.0028861914541593
 108     0.0574911938150853
 109     0.1347079878810800
 110    -0.0430002662985342
 111    -0.0027853038591982
 112     0.0583946686885725
 113     0.1396923561779317
 114     0.0400317744633553
 115     0.0096827852632878
 116     0.0439639938510389
 117     0.0287939998022348
 118     0.0031064362758600
 119     0.0144931881120722
 120    -0.2352445496099121
 121    -0.1283827574163884
 122     0.0055160231993118
 123    -0.0012360607173686
 124     0.1982938168196090
 125     0.0046457432517421
 126     0.1054403391003403
 127     0.0515598961330983
 128     0.1381360463797823
 129     0.0040675577995869
 130    -0.1136800544804458
 131    -0.0509649702034589
 132     0.1135409530487441
 133    -0.0378595059468466
 134     0.1073156350993907
 135     0.0704534508883297
 136    -0.1489034277249087
 137    -0.0499994740446836
 138    -0.1201978815601116
 139    -0.0285756965700199
 140    -0.1393048079705060
 141    -0.1120715056081373
 142    -0.0095769646629779
 143     0.0392937759228673
 144    -0.1209172812527736
 145     0.1180045587508410
 146    -0.0191840936947964
 147     0.0641766828702525
 148     0.2028334241211829
 149     0.0071245071864341
 150    -0.0293731018425353
 151    -0.0006158856054352
 152    -0.0028265020805410
 153    -0.0271541756490311
 154     0.0099949395527613
 155    -0.0000654413481753
 156     0.0104623704018343
 157     0.0021826868727688
 158     0.0004389097747465
 159    -0.0003372750978194
 160    -0.0009052997456812
 161     0.0007716259186147
 162    -0.0001146259899010
 163    -0.0006613988494076
 164     0.0001717687399354
 165    -0.0013515885729459
 166     0.0004039258046873
 167    -0.0042696364855825
 168     0.0004721509867158
 169     0.0004982462241849
 170     0.0000388316428769
 171     0.0137299143555263
 172     0.0051423667884829
 173    -0.0001496814494221
 174     0.0017745519779905
 175    -0.0045562473932843
 176     0.0003228048144419
 177    -0.0004081476070250
 178     0.0009343108776326
 179    -0.0007444869768855
 180    -0.0001911567799727
 181    -0.0006777237521664
 182    -0.0001620738287815
 183    -0.0013343406748952
 184     0.0003806737171582
 Sym= 20A
 Ene= -0.198265
 Spin= Alpha
 Occup= 2.000000
  1     0.0000445963290239
  2     0.0005873404261836
  3     0.0015198775638991
  4     0.0002278928374710
  5     0.0014088776252179
  6     0.0013392818787557
  7    -0.0001699593104537
  8     0.0001079922698699
  9     0.0012678863900253
 10    -0.0006051973091127
 11     0.0002355715865311
 12     0.0060144279984687
 13     0.0010836403475237
 14    -0.0004067950495806
 15    -0.0004091960274663
 16     0.0013813390807427
 17    -0.0001037687978597
 18    -0.0004345389748051
 19     0.0000559437832535
 20    -0.0000943962666216
 21     0.0003693300446228
 22     0.0001818621973007
 23    -0.0008199462434245
 24    -0.0008668687421367
 25    -0.0003791332768024
 26    -0.0004894253785062
 27    -0.0010892059996804
 28     0.0092852299653573
 29    -0.0063587026617231
 30     0.0125321734870235
 31     0.0333357419336895
 32    -0.0002793588236575
 33     0.0052255407956569
 34     0.0068165151839018
 35     0.0017110585915762
 36     0.0011209792436616
 37    -0.1495740490779552
 38    -0.0029823893143173
 39     0.1424738559201802
 40     0.0035172801001492
 41    -0.0121221444652260
 42     0.0000931158878525
 43    -0.0052755564489494
 44    -0.0002038968146885
 45    -0.0007541492298006
 46     0.0000934939407518
 47     0.0141934987161621
 48     0.0005836273106773
 49     0.0135950951615781
 50     0.0003670224876827
 51     0.0019861311404206
 52     0.0003125054497947
 53    -0.0024662385325622
 54    -0.0003327234918966
 55    -0.0131461986347877
 56    -0.0003318283424026
 57    -0.0143532999181539
 58    -0.0006094105140582
 59     0.0001784982592124
 60    -0.0000919466944680
 61     0.0061011741129014
 62     0.0002412363190026
 63     0.0121971247119594
 64    -0.0000976569305192
 65    -0.1437262938864260
 66    -0.0035480572826366
 67     0.1510854021620590
 68     0.0030419416489614
 69     0.0057699665668551
 70     0.2270418342052859
 71    -0.0340660869958206
 72     0.0107753265199108
 73     0.0033028150933781
 74     0.1956929063026190
 75    -0.0413912649154698
 76     0.0006478061283549
 77     0.0363437188870111
 78    -0.0653588471952225
 79     0.0578367013947376
 80     0.1914940762410759
 81    -0.0490591740944781
 82    -0.0719485636040796
 83     0.0491706225209426
 84    -0.1861383527208413
 85     0.0390791894524712
 86    -0.0723781988304394
 87     0.0409307531745386
 88    -0.1962508612972404
 89    -0.0261719699624443
 90    -0.0644431616241410
 91     0.0609538363382861
 92     0.1927054951799189
 93    -0.0101233203481849
 94     0.2018442766459456
 95    -0.0461202953977736
 96    -0.0065709874147023
 97    -0.0077772096405687
 98     0.2028806346061354
 99    -0.0208233206150289
 100     0.0073720630387825
 101    -0.0288163391110981
 102    -0.0813368462007007
 103    -0.0088164637089190
 104    -0.1959954976481196
 105     0.0426035597544295
 106    -0.0847829782983097
 107    -0.0010603440049329
 108     0.1922423805140936
 109    -0.0434369440292955
 110    -0.0849255550967255
 111     0.0019024641265298
 112     0.1918439656991552
 113     0.0295931214633198
 114    -0.0814012274324229
 115     0.0092206766100669
 116    -0.1956267753076022
 117     0.0077849537950348
 118     0.2026898419023059
 119     0.0212050888530357
 120     0.0073344368288549
 121     0.0101874647425792
 122     0.2036779530288849
 123     0.0469315129299852
 124    -0.0067400835609152
 125     0.0255941231006013
 126    -0.0650944278363359
 127    -0.0610778231733433
 128     0.1945846597775900
 129    -0.0388748347324257
 130    -0.0739150891004367
 131    -0.0411413373285430
 132    -0.1974495449295674
 133     0.0500362412697008
 134    -0.0734875230282681
 135    -0.0491732718831908
 136    -0.1871050320522372
 137    -0.0366516127324767
 138    -0.0657496229284120
 139    -0.0578943654028992
 140     0.1926883590059968
 141    -0.0036988241933385
 142     0.1967969736043885
 143     0.0420911404918673
 144     0.0001183553149084
 145    -0.0056827311179325
 146     0.2289366026078608
 147     0.0353276879211332
 148     0.0108745369839753
 149     0.0090141459293682
 150     0.0056590665797115
 151    -0.0126798358251437
 152     0.0338192192824078
 153     0.0002675676349704
 154    -0.0051224984300496
 155     0.0069036458823639
 156    -0.0016256599786783
 157     0.0010908781457541
 158     0.0000572308213878
 159    -0.0005777752513736
 160    -0.0015196764126682
 161     0.0002347377217413
 162    -0.0014260698324708
 163    -0.0013504982292194
 164    -0.0001834430235314
 165    -0.0001257382475907
 166     0.0012860477569942
 167    -0.0006934411244513
 168    -0.0002809420548513
 169    -0.0061147693972722
 170     0.0011006145763365
 171     0.0005594443983222
 172     0.0004564418887422
 173     0.0014083599341921
 174     0.0001284268049212
 175    -0.0004704377749389
 176     0.0000727018636911
 177     0.0001153293176918
 178    -0.0003949298505381
 179     0.0001801870617353
 180     0.0008335520556151
 181     0.0008835605705875
 182    -0.0003731280241661
 183     0.0004780400218822
 184    -0.0010986169634111
 Sym= 21A
 Ene= -0.191978
 Spin= Alpha
 Occup= 2.000000
  1    -0.0002497912061857
  2    -0.0005101506162381
  3    -0.0009539566395301
  4    -0.0005759307555002
  5    -0.0001197513698295
  6    -0.0006798203489902
  7    -0.0006233723677423
  8    -0.0003094765851188
  9    -0.0004034520943785
 10     0.0027824517496026
 11     0.0002952961550184
 12     0.0005438560605445
 13    -0.0000051518955328
 14     0.0103384911519308
 15     0.0050878680967067
 16    -0.0000277711393713
 17     0.0017747027415928
 18     0.0044663738042084
 19    -0.0002880282059900
 20    -0.0006422998815867
 21     0.0013406525790016
 22     0.0006700368360272
 23    -0.0004400112958314
 24    -0.0012042171076990
 25     0.0004487990462176
 26    -0.0004564891402937
 27    -0.0011500283268985
 28    -0.0144262553853096
 29    -0.0136733030151651
 30     0.0031584420954030
 31     0.0046542918030334
 32    -0.0183344407918131
 33     0.0025991835477951
 34     0.0025930647058019
 35     0.0014277144683945
 36    -0.0041031229108796
 37     0.0633201396311139
 38     0.0017903872595052
 39     0.0790553041389804
 40     0.0024904692197392
 41     0.1394953212599483
 42     0.0061983165471683
 43     0.1408103681462651
 44     0.0065693808486938
 45    -0.1578307742416193
 46    -0.0056209384563629
 47    -0.1640024840425560
 48    -0.0058794912897452
 49    -0.2036449398195307
 50    -0.0080485679684375
 51    -0.2013539659826950
 52    -0.0080313527320331
 53     0.2016024694997628
 54     0.0080178983759763
 55     0.2035948986942852
 56     0.0080432912272529
 57     0.1655991089734270
 58     0.0059598188870208
 59     0.1591906130259050
 60     0.0056789565112690
 61    -0.1421311378726462
 62    -0.0066266759961016
 63    -0.1407064793633058
 64    -0.0062728024287246
 65    -0.0796995212309189
 66    -0.0025028799895337
 67    -0.0642491468402764
 68    -0.0018192919208930
 69     0.0047020258264586
 70     0.0222225853098187
 71     0.0416292657645494
 72    -0.1534247406930403
 73    -0.1614619941764927
 74     0.0142692874819335
 75     0.0249191039904453
 76     0.0691711774476173
 77     0.1244692081459052
 78    -0.0967898581240103
 79     0.0521822025669954
 80    -0.0124283518476013
 81     0.1254039498702395
 82     0.1007158778376631
 83    -0.0296159574367417
 84    -0.0179803534227898
 85    -0.0922980686754957
 86     0.0804167657926771
 87    -0.0297953150685249
 88    -0.0938391171231858
 89    -0.0948512293821388
 90    -0.0840046484956687
 91     0.0378497883069132
 92    -0.0893099505141350
 93     0.1193784547834763
 94     0.0097467392052980
 95     0.0076561675337013
 96     0.1019769595772770
 97     0.1954397874779844
 98     0.0089085226752783
 99    -0.0040020452086901
 100    -0.0713167472231025
 101    -0.1258779681902490
 102    -0.1495683792479111
 103    -0.0017531141592679
 104     0.0585341253952017
 105    -0.1260821616363743
 106     0.1410332914447789
 107    -0.0018484489012531
 108     0.0680262058400538
 109     0.1260799660967105
 110     0.1408828400702335
 111     0.0013141200897784
 112     0.0685141953927238
 113     0.1255620307210166
 114    -0.1494005713427063
 115     0.0018258790318993
 116     0.0588116743336777
 117    -0.1956256266963165
 118     0.0090584433176949
 119     0.0035727884075359
 120    -0.0717175200113575
 121    -0.1201553378189325
 122     0.0097802770333433
 123    -0.0080372431255169
 124     0.1020660574443690
 125     0.0959817960946985
 126    -0.0850833332111842
 127    -0.0384458167312295
 128    -0.0901309143672794
 129     0.0931960140061457
 130     0.0815011859622527
 131     0.0298914110254893
 132    -0.0942841055832800
 133    -0.1266527992320073
 134     0.1016992204655979
 135     0.0295473861067362
 136    -0.0182553185877858
 137    -0.1254065861232981
 138    -0.0973526752593569
 139    -0.0526200715227293
 140    -0.0128550990484840
 141     0.1629787522263307
 142     0.0144763018347954
 143    -0.0255050219313103
 144     0.0700192412629209
 145    -0.0046511366658702
 146     0.0220569404809453
 147    -0.0419311766943843
 148    -0.1552304725383842
 149    -0.0148234606590729
 150     0.0136781270104332
 151    -0.0029673750877755
 152     0.0047942928008640
 153     0.0185514650483904
 154    -0.0025491378280383
 155     0.0025760823022258
 156    -0.0013997858860205
 157    -0.0042133141019489
 158    -0.0002627748440765
 159     0.0005201236908136
 160     0.0009849040947195
 161    -0.0005865218174377
 162     0.0001320288932579
 163     0.0007054311389226
 164    -0.0006383133358801
 165     0.0003133653232967
 166    -0.0004289908802103
 167     0.0028354247682187
 168    -0.0002969866939846
 169    -0.0006360248567416
 170    -0.0000005386669056
 171    -0.0105182541556334
 172    -0.0051844928851500
 173     0.0000041007857004
 174    -0.0018056659945137
 175     0.0045419845626628
 176    -0.0002751804486548
 177     0.0006606275212726
 178    -0.0013594253498268
 179     0.0006739284963983
 180     0.0004430139814557
 181     0.0012181897212549
 182     0.0004622699335489
 183     0.0004543785906902
 184    -0.0011571313593963
 Sym= 22A
 Ene= -0.189429
 Spin= Alpha
 Occup= 2.000000
  1    -0.0000012861314695
  2    -0.0010679026401525
  3    -0.0024552233927626
  4    -0.0004110205734560
  5    -0.0021666040470274
  6    -0.0020416995429494
  7     0.0002389998930697
  8    -0.0001771572497201
  9    -0.0018966725141006
 10     0.0012490332608073
 11    -0.0003125295655280
 12    -0.0090233850979398
 13    -0.0015027252824028
 14     0.0020167748378235
 15     0.0013681154317091
 16    -0.0028310233035199
 17     0.0005286308463428
 18     0.0013620279527179
 19    -0.0001743181873242
 20     0.0001571065303419
 21    -0.0004329735820913
 22    -0.0001925594132862
 23     0.0012105257949565
 24     0.0011449037104416
 25     0.0006329514883943
 26     0.0005608794573420
 27     0.0013797626853284
 28    -0.0139944707620962
 29     0.0065375394860336
 30    -0.0166374722640311
 31    -0.0469185719686538
 32    -0.0018171952424583
 33    -0.0061794096172302
 34    -0.0103952605365904
 35    -0.0016084259799454
 36    -0.0018063293633131
 37     0.1989052239519874
 38     0.0061826982810795
 39    -0.1717667685832898
 40    -0.0059724257970850
 41    -0.0254793971603307
 42    -0.0022142832348537
 43     0.0424527511605448
 44     0.0028847752722509
 45     0.0163753645822652
 46     0.0020136373592645
 47    -0.0527727096981563
 48    -0.0037899568565321
 49     0.0608862712960984
 50     0.0043080758882999
 51    -0.0485873365655428
 52    -0.0040404545936515
 53    -0.0483139507664069
 54    -0.0040092467984241
 55     0.0623155903831277
 56     0.0043551529960278
 57    -0.0517871211831634
 58    -0.0037844570449362
 59     0.0160496930862584
 60     0.0020056254613698
 61     0.0432503101807359
 62     0.0029058578404795
 63    -0.0255898410730712
 64    -0.0022278806658071
 65    -0.1714769059536450
 66    -0.0059760897672987
 67     0.1977937625610496
 68     0.0061760745686659
 69    -0.0028798185810088
 70    -0.2815226261648568
 71     0.0467035318211671
 72    -0.0315587700504229
 73    -0.0140131612596097
 74    -0.1911664993477564
 75     0.0508019178881305
 76     0.0125064696086850
 77    -0.0594046157365654
 78     0.0993812019939604
 79    -0.0489413174314691
 80    -0.1648740788000889
 81     0.0811803610536910
 82     0.1008898655842008
 83    -0.0410944971315361
 84     0.1657781432911853
 85     0.0180157366678154
 86     0.1006176847854514
 87    -0.0042627486356356
 88     0.2063588078886066
 89    -0.0452058845889714
 90     0.0780786448804156
 91    -0.0184331828343585
 92    -0.2239630857976032
 93     0.0080622873032715
 94    -0.1942828258250203
 95     0.1445883429859940
 96    -0.0008159248644317
 97     0.0086840778874390
 98     0.0205539046363704
 99     0.1084742449690128
 100    -0.0121183259819866
 101     0.0762604851562233
 102     0.0254426983312321
 103     0.0737393510905837
 104    -0.0404069967974827
 105    -0.0705015060011725
 106     0.0157645359790739
 107     0.0710817622633630
 108     0.0269290325305164
 109    -0.0698273486353966
 110    -0.0144510418913678
 111     0.0712019323186352
 112    -0.0291315623225982
 113     0.0760961540231952
 114    -0.0256873007100690
 115     0.0738953178599706
 116     0.0428257440295069
 117     0.0078445886617198
 118    -0.0220732882624254
 119     0.1088677582651271
 120     0.0123017583701168
 121     0.0080659803738991
 122     0.1932540624656680
 123     0.1449363700484658
 124     0.0007048759653142
 125    -0.0456125319099482
 126    -0.0783251371481522
 127    -0.0176750621648922
 128     0.2222907095842261
 129     0.0187035086764508
 130    -0.1010515382427105
 131    -0.0035293410345950
 132    -0.2050409994168342
 133     0.0810404178140460
 134    -0.1016001981558720
 135    -0.0402630278971298
 136    -0.1637671010021053
 137    -0.0592716951697283
 138    -0.0990920557565379
 139    -0.0479810655004676
 140     0.1638027107309368
 141    -0.0136805228770732
 142     0.1895772370798390
 143     0.0512855018910681
 144    -0.0125357650948807
 145    -0.0030883898708160
 146     0.2801832666795200
 147     0.0476729256311623
 148     0.0305094307755885
 149     0.0135064974713669
 150     0.0056682528106018
 151    -0.0166360148451487
 152     0.0469557888865695
 153    -0.0017037026056831
 154    -0.0060548430373458
 155     0.0103831988451810
 156    -0.0015199292130938
 157     0.0017525205627761
 158     0.0000196478832412
 159    -0.0010402801883156
 160    -0.0024255397815331
 161     0.0004136353522256
 162    -0.0021680254799810
 163    -0.0020319827881467
 164    -0.0002559915306457
 165    -0.0001946927544043
 166     0.0018986996836852
 167    -0.0013466865633398
 168    -0.0003781055514545
 169    -0.0090410839408608
 170     0.0015052331178836
 171     0.0021575617998079
 172     0.0013997927780440
 173     0.0028374732914877
 174     0.0005563634877869
 175    -0.0013836473021457
 176     0.0001950138142151
 177     0.0001870448999214
 178    -0.0004649477116742
 179     0.0001904787095021
 180     0.0012130595267435
 181     0.0011525819635486
 182    -0.0006148061022808
 183     0.0005405222929607
 184    -0.0013724523722884
 Sym= 23A
 Ene= -0.186653
 Spin= Alpha
 Occup= 2.000000
  1     0.0004902509093163
  2     0.0012820534655606
  3     0.0024022161572931
  4     0.0012943904328983
  5     0.0004100101154014
  6     0.0015647617394280
  7     0.0012220114926025
  8     0.0007703740302698
  9     0.0010099530171226
 10    -0.0055307710961988
 11    -0.0006578409534437
 12    -0.0019975851082039
 13    -0.0001087739006017
 14    -0.0221431923912879
 15    -0.0113325806350772
 16    -0.0005220946474448
 17    -0.0042107511400024
 18    -0.0105635854264500
 19     0.0004301591424197
 20     0.0016681900904889
 21    -0.0032522732435035
 22    -0.0014558166924591
 23     0.0012911411580501
 24     0.0025247742506751
 25    -0.0009205324852839
 26     0.0009719787215200
 27     0.0021739748713926
 28     0.0334371331587850
 29     0.0278079797924115
 30    -0.0051129594030667
 31    -0.0126242355954020
 32     0.0388134559814302
 33    -0.0041403725708726
 34    -0.0040831359992723
 35    -0.0054830510553690
 36     0.0096411058215000
 37    -0.1051125689063663
 38    -0.0040479215233794
 39    -0.1702780512549571
 40    -0.0064222498979050
 41    -0.0684104977400336
 42    -0.0063947053038235
 43    -0.0593059091851504
 44    -0.0059316636623104
 45     0.1846616858306895
 46     0.0091824928204389
 47     0.1854687438914852
 48     0.0088810934415107
 49    -0.0760736291514745
 50    -0.0022253621550992
 51    -0.0851488282636316
 52    -0.0030123625496382
 53    -0.0865093131341878
 54    -0.0030897382435672
 55    -0.0781387592656822
 56    -0.0023211750009005
 57     0.1849242262655297
 58     0.0088741879483488
 59     0.1837685825444257
 60     0.0091549047568025
 61    -0.0587949400844012
 62    -0.0058934793620894
 63    -0.0678437527301249
 64    -0.0063764624143118
 65    -0.1695793496801514
 66    -0.0063976349856911
 67    -0.1053969610144486
 68    -0.0040649799407293
 69    -0.0189881222297055
 70    -0.0658219028534614
 71    -0.0914696653940107
 72     0.2874659278347864
 73     0.1772600918982431
 74    -0.0352522637491157
 75    -0.0684579368071019
 76    -0.1994179840968543
 77    -0.1287615542039887
 78     0.0104371547504997
 79    -0.0398340125816403
 80    -0.0330461102457503
 81    -0.1224779069545799
 82    -0.0221931308167701
 83    -0.0365506822659573
 84    -0.0202297543378026
 85     0.1371041653503764
 86    -0.0939425617752162
 87     0.0326297888502859
 88     0.1473819133916656
 89     0.1298955382750246
 90     0.0880110246735471
 91    -0.0679475309035594
 92     0.1324889647493597
 93    -0.0250991237647015
 94    -0.0222613307995060
 95    -0.0202798294092759
 96    -0.0886901920357216
 97    -0.0996298074929624
 98     0.0017179961995392
 99    -0.0118063494048605
 100     0.1080575581717575
 101    -0.0165485761345342
 102    -0.0733324099077911
 103    -0.0155386526470185
 104     0.0858758728983455
 105    -0.0267855426468464
 106     0.0802126562450490
 107    -0.0030821679137757
 108     0.0899395447917083
 109    -0.0281378100947572
 110    -0.0813678512911933
 111    -0.0029340020970492
 112    -0.0895673391283325
 113    -0.0173046804829346
 114     0.0746529076913342
 115    -0.0158632951855747
 116    -0.0872410374060736
 117    -0.0980427992432956
 118    -0.0013495806025058
 119    -0.0119173781079151
 120    -0.1072944770029547
 121    -0.0244102072606102
 122     0.0226238434939164
 123    -0.0200990519710218
 124     0.0876333957003176
 125     0.1295394816517793
 126    -0.0882916996817876
 127    -0.0679462831925331
 128    -0.1317186350037501
 129     0.1366688643768891
 130     0.0933818814257783
 131     0.0323398814266506
 132    -0.1470267241185897
 133    -0.1220158892812240
 134     0.0216663994047016
 135    -0.0368148968093184
 136     0.0200429360425062
 137    -0.1281664737439221
 138    -0.0099368670498298
 139    -0.0396600489554538
 140     0.0329842510779380
 141     0.1765394292596464
 142     0.0356908123785901
 143    -0.0684473517609214
 144     0.1991667752264714
 145    -0.0189740661774651
 146     0.0650869196988630
 147    -0.0906878124951312
 148    -0.2872952430276873
 149    -0.0337668044891943
 150     0.0274750056509965
 151    -0.0046860821572030
 152     0.0128000525527369
 153     0.0387245095475695
 154    -0.0040735048213062
 155     0.0040427629983432
 156    -0.0054260697135499
 157    -0.0096861128976776
 158    -0.0005067346288005
 159     0.0012854106928454
 160     0.0024315902350504
 161    -0.0012973876484789
 162     0.0004285569710911
 163     0.0015859227304877
 164    -0.0012328468248779
 165     0.0007674054824890
 166    -0.0010381370406225
 167     0.0055559565508512
 168    -0.0006576909208551
 169    -0.0021820721515254
 170     0.0001186589718076
 171    -0.0222352766368734
 172    -0.0114031499559191
 173     0.0005947077002614
 174    -0.0042210910685524
 175     0.0106025894752026
 176    -0.0003891358958111
 177     0.0016888819029678
 178    -0.0032474452977236
 179     0.0014428057001974
 180     0.0012805285573106
 181     0.0025152840199695
 182     0.0009268034779488
 183     0.0009561834018741
 184    -0.0021601933791322
 Sym= 24A
 Ene= -0.176303
 Spin= Alpha
 Occup= 2.000000
  1     0.0002032443849461
  2     0.0009472264469192
  3     0.0019176692214900
  4     0.0006709700096225
  5     0.0005774052689582
  6     0.0011943547554244
  7     0.0005351983998005
  8     0.0005164360781315
  9     0.0009714815803599
 10    -0.0019905747780455
 11    -0.0002970721091906
 12    -0.0017499246293402
 13    -0.0001855929157719
 14    -0.0091714882003305
 15    -0.0049607518644728
 16    -0.0010844276382177
 17    -0.0022873465206354
 18    -0.0052023598070654
 19    -0.0000229578834901
 20     0.0012126178278383
 21    -0.0021431678441980
 22    -0.0006269008261713
 23     0.0012245316453052
 24     0.0012330559194022
 25    -0.0005594817140304
 26     0.0003903966153749
 27     0.0006602600056721
 28     0.0203669976316719
 29     0.0077362768292298
 30     0.0010627045045778
 31    -0.0076506370133878
 32     0.0161634597066296
 33     0.0033858900758671
 34     0.0014355170314331
 35    -0.0043107630481881
 36     0.0068836096850406
 37    -0.0216806436103872
 38    -0.0023789847341553
 39    -0.0776596262461894
 40    -0.0043577913404076
 41     0.2186964288091506
 42     0.0096636705775488
 43     0.2430605480990010
 44     0.0117578153279348
 45    -0.1364997336970327
 46    -0.0081953608083302
 47    -0.1280828499883784
 48    -0.0087023796873956
 49    -0.0696522396684489
 50    -0.0000105982607317
 51    -0.0698176497716961
 52    -0.0004073537687773
 53    -0.0670624798840816
 54    -0.0001964852349423
 55    -0.0652333261938081
 56     0.0002407303219263
 57    -0.1284294839115318
 58    -0.0087798457942910
 59    -0.1378657588191312
 60    -0.0083298088636633
 61     0.2439833681011964
 62     0.0117871715310980
 63     0.2203634932623774
 64     0.0097997935850734
 65    -0.0753037070732709
 66    -0.0042909070085030
 67    -0.0235087213067838
 68    -0.0024943620524046
 69    -0.0258625320865245
 70    -0.0433939901605229
 71    -0.0553128327992708
 72     0.0807829243630245
 73    -0.1036027319132355
 74    -0.0162373353335804
 75    -0.0678460757545255
 76    -0.1421042017124645
 77     0.0647358411009091
 78    -0.2042819443062992
 79     0.0321615926253497
 80    -0.1015513182888684
 81     0.0655394117492344
 82     0.1797965762921611
 83    -0.1275883374199151
 84    -0.1303515950296360
 85    -0.0469643452152921
 86     0.1209370587146569
 87    -0.0917107846314296
 88     0.0190349159948140
 89    -0.0624575178525141
 90    -0.1491324070143016
 91     0.0259896917798808
 92     0.0407533506855364
 93     0.2216907420842027
 94    -0.0107273116713282
 95    -0.0505487708476151
 96    -0.0808515046432766
 97    -0.0789703500829145
 98     0.0028041267253088
 99    -0.0510519928520065
 100    -0.0177167913506102
 101     0.0207772211912730
 102    -0.0117736028935990
 103    -0.0342389238006777
 104     0.1381894598806709
 105     0.0160141187641069
 106     0.0136423019577988
 107    -0.0359329001435231
 108     0.1415981959948564
 109     0.0183088475551567
 110    -0.0122769970134943
 111    -0.0361851704355864
 112    -0.1396846337034459
 113     0.0223434046512756
 114     0.0069824534533603
 115    -0.0341087704855080
 116    -0.1378220815687026
 117    -0.0819724100132286
 118    -0.0008010665449885
 119    -0.0509148931406460
 120     0.0186735340377873
 121     0.2221263764636865
 122     0.0108426593661018
 123    -0.0502767621536607
 124     0.0819604766625507
 125    -0.0631446668898506
 126     0.1495687826305954
 127     0.0267826607079365
 128    -0.0413707713506243
 129    -0.0481924501030258
 130    -0.1225431284063873
 131    -0.0918679618289461
 132    -0.0189570841924581
 133     0.0656332343875108
 134    -0.1807125784894704
 135    -0.1268850189647130
 136     0.1314658065696633
 137     0.0657653080306798
 138     0.2050605835700924
 139     0.0328833243841566
 140     0.1024701775750789
 141    -0.1044959090081945
 142     0.0158492154957211
 143    -0.0666295160827433
 144     0.1417424654216178
 145    -0.0265307364791994
 146     0.0405056319023356
 147    -0.0544139437763880
 148    -0.0804192510594618
 149    -0.0201475324027471
 150     0.0077392253072839
 151     0.0013933905489194
 152     0.0070920057313865
 153     0.0159859662073154
 154     0.0031691794989151
 155    -0.0015213177258466
 156    -0.0044112255531965
 157    -0.0067183973806530
 158    -0.0001995999823792
 159     0.0009438100921475
 160     0.0019195680095011
 161    -0.0006666836530578
 162     0.0006011630760388
 163     0.0011912053549946
 164    -0.0005153888030186
 165     0.0005178130214371
 166    -0.0009745697567286
 167     0.0019900412206365
 168    -0.0002957990114960
 169    -0.0017094784306894
 170     0.0001743983547425
 171    -0.0091844672508423
 172    -0.0049889512533302
 173     0.0010727245545886
 174    -0.0022756335346742
 175     0.0052155912976675
 176     0.0000493342265224
 177     0.0011984292083320
 178    -0.0020870777964525
 179     0.0006080061474655
 180     0.0011793421472846
 181     0.0011828150517278
 182     0.0005415281539972
 183     0.0003857086845643
 184    -0.0006246422627689
 Sym= 25A
 Ene= -0.174780
 Spin= Alpha
 Occup= 2.000000
  1    -0.0001125051984023
  2     0.0008296943483564
  3     0.0016926137212561
  4     0.0002647246054182
  5     0.0016682596048633
  6     0.0013909094468473
  7    -0.0003049046820645
  8     0.0001265969236215
  9     0.0013882521403155
 10    -0.0006061972833426
 11     0.0002527956127398
 12     0.0072464381953970
 13     0.0009719738734249
 14    -0.0003709495827455
 15    -0.0003767382942669
 16     0.0027625785136821
 17    -0.0002865546314626
 18    -0.0003907375830929
 19     0.0002090241764465
 20    -0.0004838528817916
 21     0.0008434772481257
 22     0.0002478285596954
 23    -0.0011767043544395
 24    -0.0010305140422457
 25    -0.0004226270809573
 26    -0.0002898397143019
 27    -0.0010756883339982
 28     0.0047125953802463
 29    -0.0029058865358195
 30     0.0119029151366018
 31     0.0339905637547879
 32    -0.0007131947793542
 33     0.0028697908765908
 34     0.0089283893422936
 35     0.0007219850718947
 36     0.0006479433718570
 37    -0.1120987105396125
 38    -0.0048803370203330
 39     0.1101911216083131
 40     0.0052113224102172
 41    -0.0509524165784137
 42     0.0004861476531361
 43     0.0481197944345394
 44    -0.0002533446679070
 45    -0.1465756917574645
 46    -0.0049382120943633
 47     0.1495890630736228
 48     0.0053579635655022
 49     0.1616940190486724
 50     0.0037043542839981
 51    -0.1766703909506891
 52    -0.0046503554446625
 53     0.1758050876608400
 54     0.0046252331374558
 55    -0.1617885836874665
 56    -0.0037002714440440
 57    -0.1505508224314941
 58    -0.0054308040489128
 59     0.1463244150352694
 60     0.0049088729512326
 61    -0.0466825186124297
 62     0.0003217629298419
 63     0.0526862430370046
 64    -0.0004229292383288
 65    -0.1110637160596631
 66    -0.0052730573805866
 67     0.1118370254569463
 68     0.0048614576489947
 69     0.0000184717468081
 70     0.1582100881929072
 71    -0.0140823414785274
 72     0.0046198814374222
 73     0.0009189993453482
 74    -0.0003742483490610
 75     0.0119785347676570
 76     0.0004210096418347
 77     0.0733748489705640
 78     0.0544851813421878
 79    -0.0298474163131050
 80     0.0858579732890546
 81    -0.0741828760313226
 82     0.0538061368105237
 83    -0.0357761009589678
 84    -0.0799670282695396
 85     0.0100251296533730
 86     0.1012337526120200
 87    -0.0855406409597338
 88    -0.1079297643921344
 89    -0.0074874310303302
 90     0.1036415594370690
 91    -0.0765562982130024
 92     0.1162929847478183
 93    -0.0004470064389782
 94    -0.0762542138259156
 95    -0.0457562038515018
 96     0.0043190763660960
 97     0.0049245128273778
 98    -0.2763948570772875
 99    -0.0376395619834492
 100     0.0048507060704297
 101    -0.0827555536480130
 102     0.2682786462537234
 103    -0.0070146465039626
 104     0.0244860197169981
 105     0.0738921278761696
 106     0.2792656801396607
 107    -0.0158337175225615
 108    -0.0251833576872506
 109    -0.0737056665842276
 110     0.2787920591979913
 111     0.0156975554866793
 112    -0.0263303784161688
 113     0.0828964161563488
 114     0.2681390675855856
 115     0.0071147591810592
 116     0.0233784087423111
 117    -0.0056140756125543
 118    -0.2760282864442316
 119     0.0390836179478770
 120     0.0048179511300574
 121     0.0021057532384618
 122    -0.0768882666271629
 123     0.0468920167203703
 124     0.0052799138845337
 125     0.0073491051998293
 126     0.1047804722948823
 127     0.0778734573967782
 128     0.1158710863091110
 129    -0.0103081136213065
 130     0.1002930777653815
 131     0.0861199638052721
 132    -0.1087985396310297
 133     0.0747570556845951
 134     0.0523629865052654
 135     0.0360966617026457
 136    -0.0791364656896618
 137    -0.0734115717312982
 138     0.0560068729959731
 139     0.0311895216918602
 140     0.0869171412416072
 141    -0.0012922377783591
 142    -0.0010826816229136
 143    -0.0111442680365655
 144     0.0016210421500874
 145    -0.0005693267659265
 146     0.1584740519946966
 147     0.0150196824344113
 148     0.0032772761296389
 149     0.0045058517342338
 150     0.0026150915593209
 151    -0.0118739541667980
 152     0.0341806834093910
 153     0.0009545586679727
 154    -0.0029556393840660
 155     0.0089330522295537
 156    -0.0007652473076889
 157     0.0006212456195845
 158    -0.0001022349815419
 159    -0.0008117527086126
 160    -0.0016772720023020
 161     0.0002620657960320
 162    -0.0016791614280758
 163    -0.0013886570629719
 164    -0.0003173744763333
 165    -0.0001303545516904
 166     0.0013924651430505
 167    -0.0006657188422897
 168    -0.0003109425000704
 169    -0.0073181863631332
 170     0.0009804567162352
 171     0.0003819708036485
 172     0.0003544647160069
 173     0.0027924256206953
 174     0.0002966666830030
 175    -0.0003692796108903
 176     0.0002323889385518
 177     0.0005118355859051
 178    -0.0008641683638341
 179     0.0002498911800989
 180     0.0011767562267138
 181     0.0010342328588425
 182    -0.0004115947395153
 183     0.0002824586757426
 184    -0.0010669979752642
 Sym= 26A
 Ene= -0.170982
 Spin= Alpha
 Occup= 2.000000
  1     0.0000958511398454
  2    -0.0017563869458593
  3    -0.0032678092545709
  4    -0.0003879708951916
  5    -0.0022281412116133
  6    -0.0018886173407780
  7    -0.0005083689687971
  8     0.0004723104771909
  9    -0.0013077031855190
 10     0.0012935928212444
 11    -0.0003174442606714
 12    -0.0061133131661810
 13    -0.0008370684387790
 14     0.0035020613026938
 15     0.0024907648645454
 16    -0.0027860163361241
 17     0.0009798380160002
 18     0.0022139440962992
 19    -0.0002400038184867
 20    -0.0006571968885531
 21     0.0013719231701715
 22     0.0000686791272924
 23     0.0003432311284355
 24    -0.0003909854169139
 25     0.0008843302960546
 26     0.0005376844478350
 27    -0.0001880084049849
 28    -0.0260805762124882
 29     0.0135896780651484
 30    -0.0065564188303772
 31    -0.0273572563932727
 32    -0.0033221805538063
 33    -0.0100328096762057
 34    -0.0036863280681175
 35    -0.0045072058556912
 36    -0.0039974110522714
 37     0.1090912331578070
 38     0.0053448741177964
 39    -0.0673790231856281
 40    -0.0058802566401972
 41    -0.0548771681365984
 42    -0.0025887368114055
 43     0.1852753535472505
 44     0.0103545028432654
 45    -0.1060596393540826
 46    -0.0038289032645557
 47     0.0008729099839466
 48    -0.0067762249551547
 49     0.2004313746257451
 50     0.0107427280022648
 51     0.0105637861529457
 52     0.0044040377201822
 53    -0.0106420288105262
 54    -0.0044461026533945
 55    -0.1998890905328757
 56    -0.0106587300146451
 57    -0.0024200848731473
 58     0.0066492895180958
 59     0.1055144441378529
 60     0.0038414671000712
 61    -0.1847167511123973
 62    -0.0102523114732706
 63     0.0546198042506235
 64     0.0025858420285909
 65     0.0659862958643895
 66     0.0058640562756504
 67    -0.1066201693366504
 68    -0.0051876249510023
 69    -0.0250909442336576
 70    -0.1277041318739644
 71     0.0570470179567528
 72    -0.0490147753472509
 73    -0.0434742823465074
 74    -0.0749154774853006
 75     0.0901367449513253
 76     0.0228581439585779
 77     0.0234701705461811
 78     0.1211426575059065
 79     0.0155193542969730
 80    -0.0106160283660491
 81     0.0455347030057468
 82     0.1937036793784962
 83    -0.0156956539000482
 84    -0.0720224645948183
 85     0.0366461227646852
 86     0.1885305282777584
 87     0.0133735750577002
 88     0.0112035878618402
 89    -0.1330864596348147
 90     0.0973771919423397
 91     0.0624037508331593
 92    -0.0142485592730363
 93     0.0524794493450019
 94    -0.0598625862815976
 95     0.1773456296905995
 96    -0.0212256983124075
 97    -0.0839713825323385
 98     0.1490784418377069
 99     0.0855180310288216
 100    -0.0616237212518775
 101     0.0154713307213270
 102     0.1006608844047196
 103     0.0340787475994976
 104    -0.2723764596890375
 105     0.0746566593678503
 106    -0.0930650878192927
 107     0.0221967245009935
 108     0.2136301470050603
 109    -0.0754452984784418
 110    -0.0928823691892178
 111    -0.0237784554263567
 112     0.2133388852713072
 113    -0.0143989426490192
 114     0.1003613043919482
 115    -0.0365286422057629
 116    -0.2717322273253610
 117     0.0842671221982556
 118     0.1483763372714333
 119    -0.0886612487229419
 120    -0.0612616293216762
 121    -0.0521085964922426
 122    -0.0580483250496196
 123    -0.1799007559048001
 124    -0.0214860829403448
 125     0.1317618338117767
 126     0.0988381728293149
 127    -0.0645599273999962
 128    -0.0126658296047345
 129    -0.0367045817285183
 130     0.1888020049330391
 131    -0.0163167549062886
 132     0.0106240442356293
 133    -0.0444030365600637
 134     0.1941824608076249
 135     0.0130905784561320
 136    -0.0729854199870051
 137    -0.0236008414329982
 138     0.1218401728256677
 139    -0.0180912563220003
 140    -0.0110464310999754
 141     0.0423785072991828
 142    -0.0733585361273295
 143    -0.0929719183938631
 144     0.0220460322702053
 145     0.0259078931153957
 146    -0.1246134507053651
 147    -0.0585813904312769
 148    -0.0471536145819053
 149    -0.0263440859242748
 150    -0.0138804067996117
 151     0.0066537530288690
 152    -0.0270949926203887
 153     0.0029967757679661
 154     0.0105170785283320
 155    -0.0036405028807926
 156     0.0047179771477593
 157    -0.0041764125563127
 158     0.0000654141492445
 159     0.0017469155458481
 160     0.0032914660207861
 161    -0.0003856902184449
 162     0.0022522118569677
 163     0.0019129464363952
 164    -0.0005263661946205
 165    -0.0004783466086341
 166    -0.0013332610701851
 167     0.0013372672150242
 168     0.0003707512413505
 169     0.0059921500392268
 170    -0.0008212109279011
 171    -0.0034266227805660
 172    -0.0024298900780866
 173    -0.0027296865946930
 174    -0.0009926059754799
 175     0.0021577245721256
 176    -0.0002414077538149
 177     0.0006640900093279
 178    -0.0013931449843638
 179     0.0000618085362949
 180    -0.0003179767632266
 181     0.0004184222361500
 182     0.0008947413062834
 183    -0.0005435952193218
 184    -0.0002131223235770
 Sym= 27A
 Ene= -0.170230
 Spin= Alpha
 Occup= 2.000000
  1     0.0002857771120487
  2     0.0003666942803489
  3     0.0005515189332116
  4     0.0003413264767905
  5    -0.0006527994376894
  6     0.0001682845074372
  7     0.0010316187526659
  8    -0.0002508496506597
  9    -0.0001746565839566
 10    -0.0011138935210351
 11    -0.0002871875048382
 12    -0.0050186324245078
 13    -0.0004987838664879
 14    -0.0068103566160581
 15    -0.0036479558858592
 16    -0.0018051695884755
 17    -0.0012592336965030
 18    -0.0030925672361039
 19     0.0001128833864277
 20     0.0014339009785812
 21    -0.0026648516266444
 22    -0.0007726475308135
 23     0.0016090693592711
 24     0.0020334225557501
 25    -0.0004774645249254
 26     0.0000197965758764
 27     0.0018431899003513
 28     0.0180898132680252
 29     0.0019844572019803
 30    -0.0098114011424453
 31    -0.0250028603444465
 32     0.0109763188768436
 33     0.0027559303901780
 34    -0.0074360284880973
 35     0.0027556654642513
 36     0.0047502601420533
 37     0.0333677835679603
 38     0.0042602569016020
 39    -0.0983259558952615
 40    -0.0041785915632008
 41    -0.1932496132314936
 42    -0.0118470724968950
 43    -0.0711728261337061
 44    -0.0049120471602550
 45     0.0889636145369399
 46     0.0122081930276972
 47     0.1293783161472229
 48     0.0097243109049450
 49    -0.1595572283933526
 50    -0.0134099568201145
 51    -0.2564267251071268
 52    -0.0171482303326926
 53     0.2576952608298521
 54     0.0171224549372590
 55     0.1598412502208039
 56     0.0134476001015841
 57    -0.1310342526922023
 58    -0.0097169598472781
 59    -0.0834767704980844
 60    -0.0119544843189890
 61     0.0651068841223270
 62     0.0046225532345143
 63     0.1938172396190538
 64     0.0118361503456039
 65     0.0987760326824509
 66     0.0042228861726483
 67    -0.0326802343421157
 68    -0.0042543449296652
 69     0.0324496514686732
 70    -0.1058886427070895
 71    -0.0253043312242403
 72     0.0830725252046100
 73     0.0927725713831677
 74    -0.0505989979381345
 75    -0.0157341427157697
 76    -0.0409301236165754
 77    -0.0825395159958860
 78     0.1401505957707501
 79    -0.0533995840707642
 80     0.1023790408682653
 81    -0.0603150902667126
 82    -0.0220923705684823
 83    -0.0057315761449266
 84     0.0543743578711574
 85     0.1393964430927756
 86    -0.0419732525205629
 87     0.0470316656470411
 88     0.0072110142210898
 89     0.0485844190818597
 90     0.1420019464321970
 91    -0.0614895947905936
 92     0.0065862908804516
 93    -0.1028379749174919
 94    -0.0341121446662974
 95     0.0558978723713893
 96     0.0212204011867418
 97     0.1646692652814931
 98     0.0857322662530978
 99     0.0289252094314163
 100     0.1139417419441272
 101    -0.1035923847202027
 102    -0.1997434633412418
 103    -0.0105302096734211
 104    -0.0708846080377082
 105    -0.0755550361323430
 106     0.1994311120082446
 107     0.0253455079007314
 108     0.1844262987530712
 109     0.0750200144313549
 110     0.1999031061909608
 111    -0.0250177608285124
 112     0.1858435850386854
 113     0.1035636471963029
 114    -0.1993619211071611
 115     0.0114877442411713
 116    -0.0693577868903780
 117    -0.1641600575567353
 118     0.0849965801946397
 119    -0.0281659185602292
 120     0.1135735034348661
 121     0.1000646001275255
 122    -0.0363795578770388
 123    -0.0557931106363010
 124     0.0205995912691259
 125    -0.0464341784144930
 126     0.1436999859269287
 127     0.0627189739079252
 128     0.0089556758415279
 129    -0.1399262071549186
 130    -0.0368829626087837
 131    -0.0439541812655544
 132     0.0047585487197425
 133     0.0606915564856788
 134    -0.0164938402833576
 135     0.0089526878005232
 136     0.0507917373499581
 137     0.0803550060583873
 138     0.1412952568923664
 139     0.0542626368134705
 140     0.1036879157184752
 141    -0.0913482603702928
 142    -0.0525850488445345
 143     0.0158945196572532
 144    -0.0424584746333799
 145    -0.0322626090402837
 146    -0.1058631526075300
 147     0.0254215303080348
 148     0.0841187087372382
 149     0.0187158638950294
 150    -0.0014968032321324
 151     0.0094558224471994
 152    -0.0249529482446260
 153    -0.0111481916691089
 154    -0.0029770862307388
 155    -0.0072588731178768
 156    -0.0028127936108629
 157     0.0049369611937139
 158     0.0002918168075800
 159    -0.0004038061049212
 160    -0.0006273562865058
 161     0.0003527487981714
 162     0.0006233140906587
 163    -0.0002191582482599
 164     0.0010545628063655
 165     0.0002517898038466
 166    -0.0001262121940850
 167    -0.0011001231547772
 168     0.0003187486530223
 169     0.0051058960785671
 170    -0.0005055386406192
 171     0.0068654364118863
 172     0.0037028310397137
 173    -0.0018494661942802
 174     0.0012781664945076
 175    -0.0031380076766574
 176     0.0000816985382686
 177    -0.0014752442125120
 178     0.0027003560870667
 179    -0.0007686389532286
 180    -0.0016145323298997
 181    -0.0020407599116849
 182    -0.0005089723749422
 183    -0.0000012506356772
 184     0.0018287743162642
 Sym= 28A
 Ene= -0.169317
 Spin= Alpha
 Occup= 2.000000
  1    -0.0002405658952533
  2    -0.0006199520302112
  3    -0.0014780840296469
  4     0.0006624845997420
  5    -0.0001271272513041
  6    -0.0007527253736849
  7    -0.0015883894531573
  8     0.0012283433690920
  9    -0.0002975014361981
 10    -0.0016910035139834
 11    -0.0005592786109048
 12     0.0052979072291424
 13     0.0006357158016944
 14    -0.0105606273691898
 15    -0.0051595478163921
 16     0.0021886703773787
 17    -0.0009148420858375
 18    -0.0046278416621281
 19     0.0000186814581815
 20    -0.0016636752815707
 21     0.0033812771952493
 22    -0.0003159568269198
 23    -0.0024589158445614
 24    -0.0023302866700263
 25     0.0011431026309679
 26     0.0010714703232823
 27    -0.0017869527139867
 28    -0.0287807790458219
 29     0.0444933959086804
 30     0.0074207437329268
 31     0.0249474681245294
 32     0.0157325597824124
 33    -0.0290038878922009
 34     0.0051111464677103
 35    -0.0147166962567430
 36    -0.0093784800165144
 37    -0.0908611618879743
 38    -0.0086298235343060
 39     0.0500157891807795
 40     0.0005804734381074
 41     0.1511104902118825
 42     0.0063755755589651
 43    -0.0590766995055156
 44    -0.0046241872348788
 45     0.0755656849949311
 46     0.0000303068481629
 47    -0.0713124114558981
 48    -0.0004061850794657
 49    -0.0497043215147789
 50    -0.0030027457874201
 51     0.0025744923556507
 52     0.0014117841991863
 53    -0.0014278117878572
 54     0.0011632395311870
 55    -0.0511851538129332
 56    -0.0031571350660585
 57    -0.0700664959619629
 58    -0.0002491128109346
 59     0.0774412773560739
 60     0.0001881176066930
 61    -0.0625482376108398
 62    -0.0048314258700203
 63     0.1505422959925514
 64     0.0063261029872210
 65     0.0499419104984207
 66     0.0006301508598480
 67    -0.0917758007028828
 68    -0.0086772205389324
 69    -0.0496201502305030
 70     0.1115924082589823
 71     0.0641719976838371
 72     0.0731608363669643
 73     0.0099191081316064
 74     0.0948567665297619
 75     0.1440738414882294
 76    -0.0558534849158088
 77    -0.0096651552595969
 78    -0.0771510174057462
 79     0.1845613708654628
 80    -0.1359534708502012
 81     0.0057576965287709
 82     0.0047678385187003
 83     0.1654280010131490
 84     0.0379995173891638
 85    -0.0581029973842771
 86    -0.0035288211750276
 87     0.1894930410789692
 88     0.0828758924911984
 89     0.0657716604833810
 90    -0.0277924676301273
 91     0.1957056859589478
 92    -0.0323888419494651
 93     0.0485681781927484
 94     0.1376811141616858
 95     0.1912125738556036
 96    -0.0377152817091395
 97    -0.0320661183891465
 98     0.0136044613977736
 99     0.2494767136645221
 100     0.0010857063345661
 101    -0.0152616192756278
 102    -0.0323635900871175
 103     0.1999867348100180
 104     0.0513661606690801
 105     0.0201104658636653
 106    -0.0069055329868080
 107     0.2021530638613190
 108     0.0312593915312502
 109     0.0198819659930010
 110     0.0018674173707183
 111     0.2020798480574997
 112    -0.0309332467185814
 113    -0.0168120599910496
 114     0.0329661047485690
 115     0.1994426700145902
 116    -0.0533794750859921
 117    -0.0297509581132523
 118    -0.0100397048244748
 119     0.2489816020311078
 120    -0.0038930337088979
 121     0.0468504408907513
 122    -0.1380376333335278
 123     0.1903961181654568
 124     0.0382716528365620
 125     0.0682292685452921
 126     0.0282357658939343
 127     0.1948421772276129
 128     0.0319890775172564
 129    -0.0571721169444221
 130     0.0058065107288324
 131     0.1902094269423437
 132    -0.0828432423416314
 133     0.0044043834333959
 134    -0.0013787698469675
 135     0.1657869098383354
 136    -0.0391524941364137
 137    -0.0109917712616260
 138     0.0784894709987060
 139     0.1842459703094577
 140     0.1347067270297170
 141     0.0112751417760510
 142    -0.0958011043955255
 143     0.1423663800120264
 144     0.0569939906686609
 145    -0.0488327234334637
 146    -0.1125525153862478
 147     0.0627317853448287
 148    -0.0742986617804508
 149     0.0283132013709533
 150     0.0449118451614246
 151     0.0071129753323895
 152    -0.0243188790560735
 153     0.0160137063634948
 154    -0.0288945318127389
 155    -0.0049345094051600
 156    -0.0146895733107721
 157     0.0092635294151478
 158     0.0002270949775868
 159    -0.0006151307747344
 160    -0.0014617538680898
 161    -0.0006781557503462
 162    -0.0001355840955474
 163    -0.0007429974562605
 164     0.0015729977014654
 165     0.0012340849222717
 166     0.0002978322104571
 167     0.0017813023903030
 168    -0.0005261469364660
 169     0.0052747831517081
 170    -0.0006560822543181
 171    -0.0108531071379465
 172    -0.0052933439399313
 173    -0.0021901312669911
 174    -0.0009696592940138
 175     0.0047384486306596
 176    -0.0000468123223315
 177    -0.0016389016089507
 178     0.0033027853391843
 179     0.0003422226822325
 180    -0.0024001238106850
 181    -0.0022721160390869
 182    -0.0011371297684261
 183     0.0010795767453043
 184     0.0017306296643362
 Sym= 29A
 Ene= -0.167185
 Spin= Alpha
 Occup= 2.000000
  1     0.0001928446676190
  2     0.0001194055824075
  3     0.0003334269365435
  4    -0.0005962540372026
  5    -0.0007693294284302
  6    -0.0004228552294524
  7     0.0012478286974061
  8    -0.0010199920761202
  9    -0.0009801122010079
 10     0.0011601955877119
 11     0.0002056052624260
 12    -0.0081409402860001
 13    -0.0008924642362258
 14     0.0053953411129925
 15     0.0023872702385912
 16    -0.0030438642689861
 17     0.0006351989068314
 18     0.0021562976337052
 19    -0.0002966068926114
 20     0.0018409569986122
 21    -0.0034133818563299
 22    -0.0000288539334816
 23     0.0024565361689399
 24     0.0023002993297664
 25    -0.0003688382330535
 26    -0.0005692370855862
 27     0.0019683294437563
 28     0.0208434367158356
 29    -0.0286037561745447
 30    -0.0134445549029029
 31    -0.0361326045481068
 32    -0.0077343061958175
 33     0.0161894020747656
 34    -0.0113732611629890
 35     0.0081101034985286
 36     0.0044018608807027
 37     0.1108904111231958
 38     0.0063355764352172
 39    -0.0992213872201727
 40    -0.0030024126253223
 41     0.1251905797787863
 42     0.0030815390670265
 43    -0.1545694548063490
 44    -0.0034947880307042
 45     0.1861514092617537
 46     0.0084667494656718
 47    -0.2004079452146779
 48    -0.0092512537867264
 49    -0.0169311473163476
 50     0.0029239618560316
 51     0.0435261758287688
 52    -0.0016837029261546
 53     0.0381887827047649
 54    -0.0020577884764151
 55    -0.0178189477142741
 56     0.0027266143747077
 57    -0.1982655222607450
 58    -0.0090976135790814
 59     0.1899131195211644
 60     0.0087904229089959
 61    -0.1577062314602008
 62    -0.0037167143585130
 63     0.1224680752888430
 64     0.0028864558162434
 65    -0.0983341946530337
 66    -0.0030242164725791
 67     0.1110188688691279
 68     0.0063059971392991
 69     0.0289275603486411
 70    -0.1439384896585749
 71    -0.0455502879787934
 72    -0.0333664014663874
 73    -0.0099521831877754
 74     0.0733829610518809
 75    -0.1474714661283292
 76     0.0218756889463168
 77    -0.0859604807850697
 78    -0.1988359279032707
 79    -0.0058741491743050
 80    -0.0625918158636124
 81     0.0937763886370853
 82    -0.2221869288873328
 83     0.0121941297596652
 84     0.0969334698946497
 85    -0.0461548030518164
 86    -0.2377552833845707
 87     0.0301011501502685
 88     0.0818060160565875
 89     0.0384776172224636
 90    -0.2339663193681541
 91     0.0229651166423405
 92    -0.1227311772392346
 93    -0.0176599631085781
 94     0.0938226244029202
 95    -0.1292205083207610
 96     0.0177437257160710
 97     0.0129353830325574
 98     0.0618706059660306
 99    -0.0922524897147860
 100    -0.0039363158252894
 101     0.0275573110010315
 102    -0.0243162126454508
 103    -0.0640846940686714
 104    -0.0292837014419654
 105    -0.0246876790875583
 106    -0.0416326780865719
 107    -0.0657104256083644
 108    -0.0065503258133587
 109    -0.0262576754996309
 110     0.0374408372554920
 111    -0.0644388767954339
 112     0.0022703829122659
 113     0.0245278647299845
 114     0.0251109854342757
 115    -0.0633462255545010
 116     0.0315273009916152
 117     0.0153953878458767
 118    -0.0628336039469674
 119    -0.0888933415287907
 120     0.0046309298369676
 121    -0.0193925058619035
 122    -0.0942643433994140
 123    -0.1228673066726330
 124    -0.0201631219702321
 125     0.0392701462528447
 126     0.2289708885054166
 127     0.0256040278804069
 128     0.1243282233588367
 129    -0.0447871257068260
 130     0.2381332754357768
 131     0.0357482629423237
 132    -0.0849831521688661
 133     0.0935142792140975
 134     0.2220014795089793
 135     0.0176820523885899
 136    -0.1000554717886647
 137    -0.0874556287440281
 138     0.1940079330426151
 139    -0.0025707599652944
 140     0.0635400774082362
 141    -0.0076349970894270
 142    -0.0744422120638349
 143    -0.1406739001438670
 144    -0.0235384769611474
 145     0.0276105075866514
 146     0.1433275117931998
 147    -0.0409924741412764
 148     0.0330688723739084
 149    -0.0193184986554758
 150    -0.0279123264855173
 151    -0.0131265855186057
 152     0.0355264682355016
 153    -0.0076657261827542
 154     0.0152256675630486
 155     0.0112772333789538
 156     0.0078194130599688
 157    -0.0040104644981823
 158    -0.0001821638565975
 159     0.0000650163252124
 160     0.0002139178435958
 161     0.0006021970219362
 162    -0.0008141008676941
 163    -0.0004866038343295
 164    -0.0012025550848633
 165    -0.0010016124199674
 166     0.0010221619255284
 167    -0.0012557966884275
 168     0.0001345313568490
 169    -0.0081243127805774
 170     0.0009027594174824
 171     0.0055302136087195
 172     0.0024553731937742
 173     0.0030365247836093
 174     0.0007065732070152
 175    -0.0022314907088625
 176     0.0003336061923827
 177     0.0017706586529081
 178    -0.0032281310523278
 179     0.0000100318616530
 180     0.0023294761544012
 181     0.0021871961553959
 182     0.0003296658418211
 183    -0.0005552203782701
 184    -0.0018771052504526
 Sym= 30A
 Ene= -0.165743
 Spin= Alpha
 Occup= 2.000000
  1    -0.0005909146929211
  2    -0.0031262330061958
  3    -0.0062514164884978
  4    -0.0002016957006538
  5    -0.0014815844189319
  6    -0.0031400049953251
  7    -0.0033743335851425
  8     0.0014991822762531
  9    -0.0017943487509257
 10     0.0006612223466311
 11    -0.0003589616904525
 12     0.0092102034714771
 13     0.0008619378373376
 14     0.0011236792694270
 15     0.0017994871629701
 16     0.0039487137821263
 17     0.0021546291556296
 18     0.0020216243007109
 19     0.0000117446628129
 20    -0.0051033320915648
 21     0.0095578005351848
 22     0.0007410442959399
 23    -0.0056346154999740
 24    -0.0057035857123332
 25     0.0026402876538021
 26     0.0013445446850498
 27    -0.0041595900494460
 28    -0.0792860547210213
 29     0.0553911450367614
 30     0.0115303653862276
 31     0.0425545944223887
 32    -0.0022266950726257
 33    -0.0453187007695479
 34     0.0083178321274079
 35    -0.0172705632332032
 36    -0.0213721757851206
 37    -0.0708638940471990
 38    -0.0085133092834811
 39     0.1530882469330292
 40     0.0050869803975663
 41     0.0164056797130053
 42     0.0002654604100846
 43    -0.1243542706060889
 44    -0.0097684694901603
 45     0.1013676856648090
 46     0.0043382156894125
 47     0.0409142542574526
 48     0.0044498021110459
 49    -0.0150328869491764
 50    -0.0037340418315792
 51    -0.0309651010450795
 52    -0.0035245628059307
 53     0.0314820580687684
 54     0.0034214971424494
 55     0.0147647058746929
 56     0.0038551969566039
 57    -0.0465570107547731
 58    -0.0047434352015262
 59    -0.0965694911159634
 60    -0.0041120791547486
 61     0.1211979602823090
 62     0.0097176272156679
 63    -0.0124336145079833
 64    -0.0001274335219055
 65    -0.1549836831262798
 66    -0.0051574272085640
 67     0.0720095031024311
 68     0.0085944827458211
 69    -0.0670979865743324
 70     0.1758762299625358
 71     0.1609135692517952
 72    -0.0398103148290392
 73     0.0547665157289044
 74     0.0695069844976017
 75     0.2635020585392541
 76     0.0899839249807524
 77     0.0041358612350685
 78     0.1071558734469813
 79     0.1638817977101568
 80    -0.1088908833242661
 81    -0.0091805877516384
 82    -0.0203989063978955
 83     0.2306789737301214
 84     0.0877907178498331
 85    -0.0364534912649238
 86    -0.0205008193404529
 87     0.2055355131619492
 88     0.0911776730156736
 89     0.0391979380711628
 90     0.1316332945832439
 91     0.1287125480637192
 92    -0.0568244531999765
 93    -0.0319085766888840
 94     0.0400874839674892
 95     0.1876040750048090
 96     0.1011866692614217
 97     0.0215207973407064
 98    -0.0406993057366152
 99     0.0948248428042347
 100    -0.0788996958616309
 101    -0.0519377416626550
 102     0.0275251797842579
 103     0.0246737162297789
 104     0.0393560374715446
 105    -0.0415442487372083
 106     0.0262527854780751
 107     0.0339530098700352
 108    -0.0104969629019402
 109     0.0406052422619546
 110     0.0268596291005645
 111    -0.0363566622088356
 112    -0.0108084999572946
 113     0.0530195017773504
 114     0.0279921816477262
 115    -0.0269242405021189
 116     0.0400241174843865
 117    -0.0215443752838788
 118    -0.0424420748162555
 119    -0.0980352394718262
 120    -0.0788129056515148
 121     0.0320914500292381
 122     0.0387033672391820
 123    -0.1912379676382364
 124     0.1011638153391528
 125    -0.0385220387513801
 126     0.1375003236511056
 127    -0.1283214292407590
 128    -0.0530621833561507
 129     0.0351359246392936
 130    -0.0149474652613841
 131    -0.2052915804555311
 132     0.0877980437352103
 133     0.0117963420904655
 134    -0.0163149597080880
 135    -0.2305413835270887
 136     0.0846511101767681
 137    -0.0061138347121517
 138     0.1120315987660207
 139    -0.1640083090477704
 140    -0.1059281039077710
 141    -0.0553296721862483
 142     0.0684439035531605
 143    -0.2662860427178431
 144     0.0900403275029261
 145     0.0673150926306097
 146     0.1787177547069864
 147    -0.1610907514313053
 148    -0.0405460397267670
 149    -0.0800996571012519
 150    -0.0568558586194894
 151    -0.0109620311289234
 152     0.0420607735870944
 153     0.0019263127396327
 154     0.0456578002148605
 155     0.0083332309785276
 156     0.0174821276536572
 157    -0.0214372364949441
 158    -0.0005958383754261
 159     0.0031753804788397
 160     0.0063606738701794
 161    -0.0001867975687273
 162     0.0015584207601222
 163     0.0031834036531474
 164    -0.0034093071933870
 165    -0.0015424053423190
 166    -0.0018212523611125
 167     0.0005835255829151
 168     0.0003206096279091
 169    -0.0094178007071437
 170     0.0009017628579444
 171    -0.0009433185872537
 172    -0.0017836421206747
 173     0.0040347287066497
 174    -0.0021233339404509
 175     0.0019922360565953
 176     0.0001029701792372
 177     0.0051646919836181
 178    -0.0095666028695867
 179     0.0007006996312585
 180     0.0055842933692424
 181     0.0056836153100983
 182     0.0026616174898272
 183    -0.0013879888194370
 184    -0.0041362215131729
 Sym= 31A
 Ene= -0.160135
 Spin= Alpha
 Occup= 2.000000
  1     0.0002631380558229
  2     0.0003300585656473
  3     0.0006321773843338
  4     0.0001008788463896
  5    -0.0008749130738042
  6    -0.0001931945135896
  7     0.0009084592992068
  8    -0.0003546426936312
  9    -0.0007437216865227
 10    -0.0002703024426392
 11    -0.0002946730444212
 12    -0.0076663397838752
 13    -0.0006012548430391
 14    -0.0044616844598844
 15    -0.0026367957546021
 16    -0.0029471539149397
 17    -0.0007293402491126
 18    -0.0023529779310523
 19    -0.0003228304486193
 20     0.0021751450353525
 21    -0.0036555081200710
 22    -0.0006710938476072
 23     0.0023596788211601
 24     0.0021137937417456
 25    -0.0001682688588713
 26    -0.0000954723519221
 27     0.0017130878822396
 28     0.0186454285927590
 29    -0.0049007852514281
 30    -0.0114050926056048
 31    -0.0323248811893260
 32     0.0068911942533907
 33     0.0041406748489916
 34    -0.0098507223974456
 35     0.0008441724477742
 36     0.0026423531718587
 37     0.0635063750156771
 38     0.0031164340183764
 39    -0.1037121746992610
 40    -0.0050458430951531
 41     0.1460249973627248
 42     0.0048638810992141
 43    -0.1051023290257240
 44    -0.0025371379658540
 45     0.1062380436120446
 46     0.0081934029150813
 47    -0.1495355585894821
 48    -0.0108551429401414
 49     0.1897213194351426
 50     0.0114382193268029
 51    -0.1863617892700292
 52    -0.0097951594692407
 53     0.1864234632043505
 54     0.0097924972666672
 55    -0.1895861093007924
 56    -0.0114202045137641
 57     0.1481079768296738
 58     0.0107913677033538
 59    -0.1055784246586884
 60    -0.0081955723525970
 61     0.1042337877184270
 62     0.0025023222786503
 63    -0.1442784360586833
 64    -0.0047872775249896
 65     0.1037703749176768
 66     0.0050434808618805
 67    -0.0632717645265890
 68    -0.0031421971675851
 69     0.0121375059106066
 70    -0.1115614966143498
 71    -0.0306172728620718
 72     0.0379395558689668
 73    -0.0128512044863383
 74     0.0978612857507995
 75    -0.0746600515766682
 76    -0.0482228680215165
 77    -0.0758493978474005
 78    -0.1858900079614152
 79     0.0733061864033374
 80    -0.0666894755310030
 81     0.0681864362246764
 82    -0.1305405342622606
 83     0.0592728544993938
 84     0.0560628507837145
 85    -0.0176980662573063
 86    -0.1079325562657282
 87     0.0813667442419709
 88     0.0731231277538088
 89     0.0268554301301746
 90    -0.1596965363019371
 91     0.1013454278471694
 92    -0.0920696766090529
 93     0.0110033193893089
 94     0.0809116316285510
 95     0.0106969983171979
 96    -0.0503045624862954
 97    -0.0051519424562298
 98    -0.0718504043055106
 99     0.0318079909311385
 100     0.0401631051202331
 101    -0.0503349817489617
 102     0.1993617562933565
 103     0.0239156557082555
 104    -0.1686504041056414
 105     0.0833528716175184
 106     0.2204432736229067
 107     0.0123852016685257
 108     0.1557360632636962
 109    -0.0833378339239796
 110     0.2206428847525030
 111    -0.0112550274789059
 112     0.1554472696408034
 113     0.0506766840861907
 114     0.1991357331236570
 115    -0.0229068646011949
 116    -0.1687684797681664
 117     0.0051254527441528
 118    -0.0720369355243626
 119    -0.0298722905573591
 120     0.0405602992047966
 121    -0.0107100319312057
 122     0.0794694988668042
 123    -0.0100903761114912
 124    -0.0505214128120100
 125    -0.0266774518675893
 126    -0.1586373162317307
 127    -0.0997666419364090
 128    -0.0911880028115779
 129     0.0168385205422979
 130    -0.1069934825998869
 131    -0.0802378041802367
 132     0.0729532990140291
 133    -0.0676364866131031
 134    -0.1294737019865370
 135    -0.0582678732085978
 136     0.0558453076369918
 137     0.0758108865146520
 138    -0.1845908463290621
 139    -0.0722844008511329
 140    -0.0654388330053476
 141     0.0126235056929055
 142     0.0970707848421913
 143     0.0742713770562558
 144    -0.0484696380730021
 145    -0.0121365515250936
 146    -0.1115722816136370
 147     0.0298832415174718
 148     0.0384625491865881
 149     0.0189092762771463
 150     0.0054386090586959
 151     0.0110924134384016
 152    -0.0322019252065182
 153    -0.0069211992770915
 154    -0.0042161738023138
 155    -0.0097928008405547
 156    -0.0009259640284205
 157     0.0027188288080448
 158     0.0002675586840775
 159    -0.0003543995254560
 160    -0.0006776338845425
 161     0.0001021287302933
 162     0.0008543421269564
 163     0.0001666917590322
 164     0.0009294041819398
 165     0.0003647213682634
 166    -0.0007241450087877
 167    -0.0002081685892507
 168     0.0003426578412881
 169     0.0077548545606154
 170    -0.0006068801486506
 171     0.0043781253947243
 172     0.0026258150777889
 173    -0.0029849285674937
 174     0.0007099168993131
 175    -0.0023283404212820
 176    -0.0003677112621172
 177    -0.0022072051565206
 178     0.0036519664026940
 179    -0.0006556314605064
 180    -0.0023308500946010
 181    -0.0021008057951577
 182    -0.0001890370008969
 183     0.0001165384113566
 184     0.0016923730699002
 Sym= 32A
 Ene= -0.156140
 Spin= Alpha
 Occup= 2.000000
  1     0.0001233261457891
  2     0.0036918868186526
  3     0.0060250534432106
  4     0.0035574740244800
  5     0.0026437062339876
  6     0.0033349030688826
  7     0.0003026969915502
  8     0.0012600450100474
  9     0.0023312552634487
 10    -0.0053007793251587
 11    -0.0017113635629265
 12     0.0067050644517248
 13     0.0007485292696428
 14    -0.0394205604297479
 15    -0.0198488944119803
 16     0.0026272256099678
 17    -0.0061198526128209
 18    -0.0175081259431118
 19     0.0006009994876413
 20     0.0021386072033314
 21    -0.0034833104880653
 22    -0.0030450458359108
 23    -0.0002382960627849
 24     0.0015545079739367
 25    -0.0008295895025973
 26     0.0011180545380887
 27     0.0006036887618967
 28     0.0345391962371870
 29     0.0593218682075361
 30     0.0085923796082231
 31     0.0258081675849335
 32     0.0540670427609587
 33    -0.0200804122465457
 34     0.0068890591158562
 35    -0.0146282203111038
 36     0.0049680814638907
 37    -0.1664883526037467
 38    -0.0119400746036169
 39    -0.0269654507403396
 40    -0.0017815382416938
 41     0.0896883120476961
 42     0.0062114588877485
 43     0.0684137598141216
 44     0.0017283310025969
 45    -0.0928525062707787
 46    -0.0064599032572998
 47    -0.0492021308322494
 48    -0.0007173207624178
 49    -0.0683672476386940
 50    -0.0023685822855168
 51    -0.0008090830886211
 52     0.0029062710366707
 53     0.0003497250677396
 54    -0.0029125437144639
 55     0.0676900329311398
 56     0.0023411169906724
 57     0.0490948749196242
 58     0.0007116619132662
 59     0.0928966483461235
 60     0.0064891672777147
 61    -0.0676129075490201
 62    -0.0016831633892864
 63    -0.0897892211781088
 64    -0.0062393745190011
 65     0.0260718052932299
 66     0.0016938183907546
 67     0.1672070737774432
 68     0.0119961829693878
 69     0.0026005220637995
 70     0.0884418841268254
 71    -0.0272732437663673
 72     0.2621478932370346
 73    -0.0237096481195584
 74    -0.0065393759794834
 75     0.0780097319206769
 76    -0.2738183461611112
 77    -0.0140580743828307
 78    -0.0736665207447133
 79     0.1117373440362759
 80    -0.0501836471938099
 81    -0.0684886675570968
 82     0.1703907687381894
 83     0.0181572849165609
 84     0.0284740991876913
 85     0.0336158831675270
 86     0.1758607385612265
 87     0.0168187650089496
 88     0.0134761767013222
 89     0.0622022198688566
 90    -0.0398105700534674
 91     0.1117624916839300
 92    -0.0245924255353027
 93     0.0362642430522209
 94     0.0033912940132868
 95     0.0943471247988006
 96    -0.2584055391394933
 97    -0.0004542147197805
 98    -0.0001471893809827
 99     0.0701706792200544
 100     0.2330341292702432
 101     0.0754528407250752
 102    -0.1152264018945413
 103     0.0221953477463452
 104     0.0375574604756242
 105     0.0549934089665681
 106     0.0531921703209067
 107     0.0183273187684342
 108    -0.0505721298627711
 109    -0.0550412054883376
 110     0.0532016838984422
 111    -0.0189479684987417
 112    -0.0517574004065973
 113    -0.0754970020422929
 114    -0.1152085736575600
 115    -0.0224095310638234
 116     0.0363924397101414
 117    -0.0000562169462232
 118    -0.0003952878974543
 119    -0.0704264030570032
 120     0.2335751611059833
 121    -0.0355488624049081
 122     0.0028156094131737
 123    -0.0945077278487192
 124    -0.2586059300769476
 125    -0.0625361958195808
 126    -0.0400861869736104
 127    -0.1112612412542135
 128    -0.0251095308066009
 129    -0.0336003079675656
 130     0.1757228512599631
 131    -0.0166946431941930
 132     0.0131417935466471
 133     0.0687904690735236
 134     0.1695391385171544
 135    -0.0176319601491615
 136     0.0288694226291908
 137     0.0140398354143721
 138    -0.0743234606365543
 139    -0.1108326417589083
 140    -0.0499685160949829
 141     0.0238747926153935
 142    -0.0075504310987865
 143    -0.0764394373298109
 144    -0.2737614107922137
 145    -0.0030906059807389
 146     0.0896823987548527
 147     0.0282505576401582
 148     0.2617809012331635
 149     0.0352208626911411
 150    -0.0593152683162484
 151    -0.0088930946531427
 152     0.0253732365611182
 153    -0.0539175552291172
 154     0.0198546944055020
 155     0.0068130758667463
 156     0.0145491691124430
 157     0.0050343635791947
 158     0.0001700583756936
 159    -0.0036931693979439
 160    -0.0061012910577864
 161     0.0035710014425814
 162    -0.0026955188198783
 163    -0.0033801457652133
 164     0.0003155396773255
 165    -0.0012625486537680
 166     0.0023700646600306
 167    -0.0054087620481632
 168     0.0016336808661969
 169    -0.0065061253609316
 170     0.0007783754853372
 171     0.0397551620974718
 172     0.0200144025364473
 173     0.0025614544094749
 174     0.0061690809543453
 175    -0.0176053325421610
 176     0.0005626781167921
 177    -0.0021837763203380
 178     0.0035334898525840
 179    -0.0030325343095625
 180     0.0002035810104855
 181    -0.0015727421932181
 182    -0.0008290208511834
 183    -0.0011016460112950
 184     0.0006308147557706
 Sym= 33A
 Ene= -0.152045
 Spin= Alpha
 Occup= 2.000000
  1     0.0003619195181614
  2     0.0060085749162848
  3     0.0112296744669681
  4    -0.0007799683788813
  5     0.0029754930158375
  6     0.0046237169799836
  7     0.0042967866422554
  8    -0.0025034243126647
  9     0.0025518230029476
 10     0.0005269617451875
 11     0.0011049363241390
 12    -0.0102728700315844
 13    -0.0003750743295766
 14     0.0074938051902487
 15     0.0011179208314586
 16    -0.0041279655774191
 17    -0.0011316172325565
 18     0.0011584523995238
 19    -0.0004004896139064
 20     0.0088613926691469
 21    -0.0156997455195725
 22     0.0000788151701505
 23     0.0085511774035510
 24     0.0073353781313662
 25    -0.0035737972511864
 26    -0.0025553185026559
 27     0.0051176711396519
 28     0.1021829097863170
 29    -0.0933032989511130
 30    -0.0128597161609358
 31    -0.0438118159250627
 32    -0.0133023842613348
 33     0.0601836053544927
 34    -0.0094360221531212
 35     0.0229945697279832
 36     0.0202087097580502
 37     0.0624399961593952
 38     0.0101751861220307
 39    -0.1138787045547377
 40    -0.0034677998668912
 41    -0.0571805617709944
 42    -0.0017736044253405
 43     0.0227876404157478
 44     0.0041418345975532
 45    -0.0733503293447687
 46    -0.0070593159453336
 47     0.0136894424088562
 48     0.0034458831314102
 49     0.0039234753000922
 50    -0.0032040990753266
 51     0.0487946368187519
 52     0.0060709328408936
 53     0.0489468123246622
 54     0.0060769748583386
 55     0.0052729394236646
 56    -0.0030708916599543
 57     0.0123912330523899
 58     0.0033087524273701
 59    -0.0731034543450163
 60    -0.0070518783999466
 61     0.0232366325524609
 62     0.0042182920837180
 63    -0.0565208551502043
 64    -0.0017080416926919
 65    -0.1135335909462259
 66    -0.0034187194201667
 67     0.0618247238269912
 68     0.0101750484516362
 69     0.0746435822979341
 70    -0.1358616193841417
 71    -0.1722377348061836
 72    -0.0127766962081175
 73    -0.0246619583611869
 74    -0.0077821293391624
 75    -0.2301851696848545
 76    -0.0156002076933089
 77     0.0097898002615797
 78    -0.0547721233345765
 79    -0.1008079982960895
 80     0.1637426331229637
 81    -0.0078270597148941
 82    -0.0537442013217936
 83    -0.1148577659518493
 84    -0.0693505351555203
 85    -0.0062923968839363
 86    -0.0048314290802339
 87    -0.0450838409046778
 88    -0.1659583185021011
 89     0.0098467719638662
 90    -0.0342858913207654
 91    -0.0151136132782183
 92     0.0786802558358098
 93    -0.0213996916103345
 94     0.1073196024700275
 95     0.0259675198220584
 96    -0.0116680441188465
 97     0.0279265688820034
 98    -0.0088890432694728
 99     0.2689239337184427
 100     0.0012501779296644
 101    -0.0345412658113317
 102    -0.0066586990569788
 103     0.2686382880923151
 104    -0.0313324503623146
 105     0.0381704332011285
 106    -0.0194788335193690
 107     0.2665149612024061
 108    -0.0700185247953494
 109     0.0384468294478785
 110     0.0206982569580986
 111     0.2659915496372662
 112     0.0686066994544454
 113    -0.0344921117395242
 114     0.0062591128612417
 115     0.2684139919682981
 116     0.0325866663040276
 117     0.0275974672140910
 118     0.0086730871348206
 119     0.2677376760321780
 120    -0.0010549780362562
 121    -0.0209552058195716
 122    -0.1065034485425609
 123     0.0248396182885131
 124     0.0115859253483718
 125     0.0092498071221625
 126     0.0354947027903111
 127    -0.0160125770578994
 128    -0.0777291525845091
 129    -0.0067373722262567
 130     0.0056250275933268
 131    -0.0464468089517195
 132     0.1650715952446427
 133    -0.0071407676618644
 134     0.0538619851381397
 135    -0.1165393659266857
 136     0.0686512679009975
 137     0.0100655505743010
 138     0.0552443605825371
 139    -0.1022912474136284
 140    -0.1628578411043320
 141    -0.0252845302326229
 142     0.0088969596383080
 143    -0.2316111853022642
 144     0.0151257739986412
 145     0.0747182529399347
 146     0.1362093658688476
 147    -0.1726867637136577
 148     0.0128137272015521
 149    -0.1029273478083149
 150    -0.0950867359561687
 151    -0.0117155211227776
 152     0.0418914045921993
 153    -0.0138470116112605
 154     0.0606750991744979
 155     0.0091293468321264
 156     0.0232378720514587
 157    -0.0203038864066123
 158    -0.0003698958384120
 159     0.0061136035835135
 160     0.0114519278343699
 161     0.0008076413469663
 162     0.0031836134311869
 163     0.0047274043146253
 164    -0.0043273850088448
 165    -0.0025510529484410
 166    -0.0026381882865533
 167    -0.0006078662202138
 168     0.0010892724510747
 169    -0.0102417654400188
 170     0.0004136066758417
 171     0.0078712571407558
 172     0.0012015115434128
 173     0.0041276396396643
 174    -0.0010936769748138
 175    -0.0012458230629592
 176     0.0005258275061874
 177     0.0089015886305300
 178    -0.0156224406081026
 179    -0.0001716487441842
 180     0.0083895123748015
 181     0.0072526392859718
 182     0.0036102466243595
 183    -0.0026076047626890
 184    -0.0050452543915072
 Sym= 34A
 Ene= -0.147132
 Spin= Alpha
 Occup= 2.000000
  1    -0.0016366488161591
  2     0.0096115226090355
  3     0.0157011976967271
  4     0.0000530777951134
  5     0.0116272433405062
  6     0.0067767047918220
  7     0.0015386830056993
  8    -0.0021159286242061
  9     0.0048276905945154
 10    -0.0013377627612349
 11     0.0020085384735863
 12     0.0258688089665827
 13     0.0009285635574901
 14     0.0009835333812386
 15    -0.0023384801599009
 16     0.0106059563293264
 17    -0.0015516695639684
 18    -0.0015640013585224
 19     0.0005452368452345
 20     0.0022323666657583
 21    -0.0049640298333057
 22     0.0015314015221180
 23    -0.0027972917827027
 24     0.0010740352422436
 25    -0.0028729280947220
 26    -0.0014948972902418
 27     0.0001873708746265
 28     0.0714284681885969
 29    -0.0607681051184899
 30     0.0259231761189747
 31     0.0989785803232100
 32    -0.0106821233304603
 33     0.0347866491851112
 34     0.0175806536216303
 35     0.0113789703564327
 36     0.0088597528756021
 37    -0.2247657385223832
 38    -0.0172857540725323
 39     0.1893782957977892
 40     0.0197132237533996
 41     0.1064795754376617
 42     0.0115812836477951
 43    -0.1113635231999945
 44    -0.0090843465516754
 45    -0.0281410934022329
 46    -0.0030963443038035
 47    -0.0042397442560287
 48     0.0007299208896045
 49     0.0677629058877251
 50     0.0077906220348342
 51    -0.0477519144147156
 52    -0.0063599312224970
 53    -0.0487864476011756
 54    -0.0064832895865492
 55     0.0688439241513469
 56     0.0078793019566191
 57    -0.0041684318081600
 58     0.0007265673417204
 59    -0.0274638475018629
 60    -0.0030312454319591
 61    -0.1143056338902511
 62    -0.0092966344415474
 63     0.1080061708244074
 64     0.0117826228963513
 65     0.1938875490256166
 66     0.0201867563404741
 67    -0.2284517772335524
 68    -0.0175896297952347
 69     0.0315493681094036
 70     0.2738925213027549
 71    -0.1175709231006325
 72     0.0094946222034103
 73    -0.0110035929520420
 74    -0.1131461543143625
 75    -0.1147651745431520
 76    -0.0136120774735680
 77     0.0444503574902767
 78    -0.0948538839356702
 79    -0.1288154937790690
 80    -0.1326301024864276
 81    -0.0380288695196454
 82    -0.0820567582815421
 83    -0.1134127572396409
 84     0.1758802095809981
 85    -0.0298579257243664
 86     0.0116570266816097
 87    -0.1421990971481867
 88     0.1174824030556780
 89     0.0273880730423906
 90    -0.0057116635124751
 91    -0.1444849688316477
 92    -0.1422974058597928
 93    -0.0045989292327671
 94    -0.1748904734435915
 95    -0.0428114484697427
 96    -0.0011019412637055
 97     0.0109675636286720
 98    -0.0367580087322933
 99     0.0661654126257593
 100     0.0004128536075367
 101     0.0407654045478466
 102     0.0472211722645381
 103     0.0804096759889914
 104    -0.0316446488276729
 105    -0.0375788294007053
 106     0.0408633680382640
 107     0.0763176247255329
 108    -0.0058317484995268
 109    -0.0385623121993667
 110    -0.0392972686859229
 111     0.0770484648958657
 112     0.0014215569368088
 113     0.0404863606964127
 114    -0.0464203290076852
 115     0.0810074726624242
 116     0.0356375853411038
 117     0.0111931923321621
 118     0.0334365916975481
 119     0.0675370633220249
 120     0.0012026777123177
 121    -0.0048895944509583
 122     0.1786657110951485
 123    -0.0411955414547914
 124    -0.0008269390727184
 125     0.0269394709136687
 126     0.0039434520720392
 127    -0.1465612060921244
 128     0.1467282225281715
 129    -0.0300706584049333
 130    -0.0121795623080922
 131    -0.1434352658692128
 132    -0.1215536151319034
 133    -0.0381816709771918
 134     0.0835705342502265
 135    -0.1148030871468426
 136    -0.1808352918239866
 137     0.0452852940294889
 138     0.0952069974953178
 139    -0.1317449113627609
 140     0.1363055271033971
 141    -0.0112106874649167
 142     0.1165541939104882
 143    -0.1172299022353410
 144     0.0113793095987140
 145     0.0324295898266108
 146    -0.2785434328834555
 147    -0.1219148784260751
 148    -0.0070252170711485
 149    -0.0722659271783316
 150    -0.0612592845067524
 151     0.0270209709740811
 152    -0.1023387718637853
 153    -0.0116504759094345
 154     0.0358218395585003
 155    -0.0180656097004790
 156     0.0116852311483119
 157    -0.0090432302267130
 158     0.0015781513441259
 159     0.0097201416999231
 160     0.0160386158555723
 161    -0.0000573465493550
 162     0.0120421822820577
 163     0.0069565072969352
 164    -0.0015272454152458
 165    -0.0021365760081009
 166    -0.0049968496396925
 167     0.0016328545294085
 168     0.0022742356151647
 169     0.0265849438807814
 170    -0.0009333917089880
 171     0.0009739403289008
 172    -0.0023248058255093
 173    -0.0108688616684732
 174    -0.0016510428913542
 175     0.0015654146153196
 176    -0.0006014888461939
 177     0.0021209687276380
 178    -0.0048859444952779
 179    -0.0015977930939414
 180    -0.0029478905116019
 181     0.0010355300412823
 182     0.0028886248635581
 183    -0.0014895560452300
 184    -0.0001905318314449
 Sym= 35A
 Ene= -0.141925
 Spin= Alpha
 Occup= 2.000000
  1     0.0022428841229660
  2    -0.0103312084558472
  3    -0.0159931022288560
  4     0.0009386563701028
  5    -0.0130549400365334
  6    -0.0062430451561469
  7    -0.0012262900870576
  8     0.0022540823923935
  9    -0.0045619905913227
 10     0.0006802416360064
 11    -0.0026384107597199
 12    -0.0284951494794374
 13     0.0000679431027419
 14    -0.0056173276380793
 15     0.0005845323870461
 16    -0.0111059765380491
 17     0.0007848488410313
 18    -0.0001731197567466
 19    -0.0003542188551793
 20    -0.0012756476151499
 21     0.0033515437887283
 22    -0.0025889318537469
 23     0.0044680018346924
 24    -0.0003136435238841
 25     0.0025151282283956
 26     0.0012923727065864
 27     0.0002288802025040
 28    -0.0596270936649001
 29     0.0608118204829592
 30    -0.0270751326119410
 31    -0.1047686885919927
 32     0.0166262336927672
 33    -0.0312631796738167
 34    -0.0179581826254250
 35    -0.0099501184547325
 36    -0.0063385249628357
 37     0.2022694973699830
 38     0.0170817388749562
 39    -0.1872765438155999
 40    -0.0197450365093991
 41    -0.0775710337053510
 42    -0.0090388245648717
 43     0.0821354460527430
 44     0.0069756026785740
 45    -0.0133208667360949
 46    -0.0018658396932190
 47     0.0209301937092251
 48     0.0026856571554797
 49    -0.0482429055961306
 50    -0.0056312864817857
 51     0.0378692809621457
 52     0.0046638865969806
 53    -0.0369739306103122
 54    -0.0045442904893845
 55     0.0472654907199212
 56     0.0054948335934583
 57    -0.0209803505766878
 58    -0.0027294139804015
 59     0.0140640827665774
 60     0.0019629863367744
 61    -0.0805549776103074
 62    -0.0068338610953980
 63     0.0756090948707044
 64     0.0088028575113660
 65     0.1832565518448899
 66     0.0193058356976102
 67    -0.1973062317483229
 68    -0.0167061333881274
 69    -0.0194317716331785
 70    -0.2536110637622916
 71     0.0946764919999967
 72     0.0153987995665237
 73     0.0049920390040051
 74     0.1530579238940627
 75     0.0802026423498959
 76    -0.0136996365319665
 77    -0.0347659765420424
 78     0.0407017223073550
 79     0.1357923111097419
 80     0.1644158922477384
 81     0.0213789137192466
 82     0.0465853596970798
 83     0.1128064135359604
 84    -0.1842971092912536
 85     0.0017813641274028
 86    -0.0114942813768472
 87     0.1127433799051273
 88    -0.1685661892931093
 89     0.0102284088102425
 90    -0.0155378612087257
 91     0.1309372856004922
 92     0.1693785615580471
 93    -0.0010068211798791
 94     0.1807332941829228
 95     0.0002760323350943
 96    -0.0178296649781141
 97    -0.0002557259800352
 98    -0.1296517732826853
 99    -0.0192853621005616
 100     0.0205358463418677
 101    -0.0139415833606680
 102     0.0270178681000543
 103    -0.0109584480872230
 104     0.1596289874403093
 105     0.0183639748601973
 106     0.0398370820110933
 107    -0.0107534251290967
 108    -0.1589095943458235
 109    -0.0177468187912025
 110     0.0404689658955783
 111     0.0065143609827051
 112    -0.1586682604768130
 113     0.0131202055848712
 114     0.0277963027458626
 115     0.0070452407246939
 116     0.1594329318246148
 117     0.0001522793745044
 118    -0.1302244174874569
 119     0.0163186139658373
 120     0.0202127310177703
 121     0.0007740902883846
 122     0.1771049182908622
 123     0.0015108635509535
 124    -0.0176940454652543
 125    -0.0107726251077697
 126    -0.0163269483235618
 127    -0.1262678400487541
 128     0.1674244709565088
 129    -0.0009440629163548
 130    -0.0122165648416207
 131    -0.1083257259191448
 132    -0.1665326387016425
 133    -0.0204693839595474
 134     0.0441593374314218
 135    -0.1083677277629973
 136    -0.1816058283882241
 137     0.0334717497020694
 138     0.0384496276129928
 139    -0.1315181912207193
 140     0.1619854493266906
 141    -0.0048761617907368
 142     0.1500797097420915
 143    -0.0767917722794682
 144    -0.0140974631789700
 145     0.0190003615824228
 146    -0.2471504785909970
 147    -0.0934353856860468
 148     0.0157938137011769
 149    -0.0572478225016281
 150    -0.0575599359804042
 151     0.0268816690233595
 152    -0.1036619338043294
 153    -0.0164359210335972
 154     0.0303527820752665
 155    -0.0176549773094329
 156     0.0095738018822625
 157    -0.0061183076189583
 158     0.0020915276912391
 159     0.0099585323648291
 160     0.0155707004411589
 161     0.0008654811303588
 162     0.0129059830797149
 163     0.0061150130400845
 164    -0.0011326826465723
 165    -0.0021549869469539
 166    -0.0045054061592576
 167     0.0009694357206027
 168     0.0027746919709983
 169     0.0280876597341721
 170     0.0000905666080143
 171     0.0050767390151637
 172    -0.0006457954903308
 173    -0.0109140290094065
 174    -0.0008676565506249
 175    -0.0000713771882071
 176    -0.0004263123860663
 177     0.0010236197776210
 178    -0.0030317447197573
 179    -0.0025070367014400
 180    -0.0044910825770747
 181     0.0002355136092223
 182     0.0023926655939221
 183    -0.0011960418997785
 184     0.0002327230422998
 Sym= 36A
 Ene= -0.132019
 Spin= Alpha
 Occup= 2.000000
  1    -0.0038602845382293
  2    -0.0262163441043339
  3    -0.0398505253151007
  4    -0.0202882683109965
  5    -0.0022596330896624
  6    -0.0168003439293241
  7    -0.0059994815815073
  8    -0.0000084413101491
  9    -0.0049807285262538
 10     0.0043394375088262
 11     0.0182332024652905
 12    -0.0003861680065813
 13    -0.0006525049494829
 14     0.0793323035141891
 15     0.0236992209694668
 16    -0.0004086924089588
 17     0.0079321803300656
 18     0.0199948045562344
 19    -0.0050817488020760
 20    -0.0268107608808046
 21     0.0422242491442511
 22     0.0208289762902395
 23    -0.0045962104982415
 24    -0.0178546312083035
 25     0.0059232118118374
 26    -0.0001290016089716
 27    -0.0061030838669731
 28    -0.1484130554100314
 29    -0.0230484640013391
 30     0.0074422827369640
 31     0.0063451792306455
 32    -0.0828930239270489
 33    -0.0127461375362448
 34     0.0031098427355208
 35     0.0047227956660724
 36    -0.0070442900560288
 37     0.0899671886036309
 38     0.0030007520611395
 39     0.0757583581397539
 40     0.0017956982786057
 41     0.0380776209727070
 42     0.0002694811185326
 43     0.0478401000470128
 44     0.0016941984161969
 45     0.1136179273368691
 46     0.0096081074849586
 47     0.1177786008237441
 48     0.0109889930385433
 49    -0.0929150667866192
 50    -0.0076012580350504
 51    -0.1012155634883402
 52    -0.0090444390011280
 53    -0.1010048131948315
 54    -0.0089947524528058
 55    -0.0925877800327895
 56    -0.0075777422823689
 57     0.1179311929420144
 58     0.0110340898125147
 59     0.1125725543515824
 60     0.0095135136030833
 61     0.0465389091960544
 62     0.0016092250818584
 63     0.0383794897513988
 64     0.0003511993878534
 65     0.0752559666937196
 66     0.0018428590117755
 67     0.0888975160428506
 68     0.0029694117555449
 69    -0.0832671459752821
 70     0.0055902504090305
 71     0.0801789599150236
 72    -0.2327816106864166
 73     0.0385086124329290
 74    -0.0012693303700440
 75    -0.0332978561359304
 76     0.2447879881146598
 77     0.0168343092920949
 78     0.0247650746588992
 79    -0.0824114497165776
 80    -0.1286157455453509
 81     0.0249830116917054
 82    -0.0899154435371208
 83    -0.0539258064396536
 84    -0.1689719004570843
 85    -0.0283845532519051
 86    -0.1024682680777967
 87    -0.0137539984556946
 88     0.1469348860649941
 89    -0.0207846071522478
 90     0.0238777812009245
 91    -0.1053449389820991
 92     0.1863664062234967
 93     0.0686135810185183
 94    -0.0067729613916596
 95    -0.0589818157580312
 96     0.0928225144370596
 97    -0.0793260731935477
 98    -0.0073468542023906
 99     0.0600240084838597
 100    -0.0706875493880910
 101    -0.0045585896251620
 102    -0.0161536448519783
 103     0.0820589633058492
 104     0.1896359602047447
 105    -0.0036836998334699
 106     0.0294571081826219
 107     0.0982068136337548
 108     0.1858944303507768
 109    -0.0036524627205664
 110    -0.0287093216793672
 111     0.0986900415409396
 112    -0.1861198046985525
 113    -0.0043103924425330
 114     0.0162451110997155
 115     0.0823398521474626
 116    -0.1893708539640550
 117    -0.0792418456904497
 118     0.0071715413003303
 119     0.0616381117017030
 120     0.0712125545518035
 121     0.0683674496717279
 122     0.0071021134047831
 123    -0.0569439349573929
 124    -0.0929205898482639
 125    -0.0208187223567513
 126    -0.0252879746041480
 127    -0.1049797501297545
 128    -0.1851785369368318
 129    -0.0282955296352674
 130     0.1010451127606762
 131    -0.0137374835086808
 132    -0.1467428849940494
 133     0.0247053947660263
 134     0.0908237642800475
 135    -0.0541492652309353
 136     0.1675256285462550
 137     0.0170226555263180
 138    -0.0240337119278343
 139    -0.0826354305462457
 140     0.1283276023329733
 141     0.0384667011405731
 142     0.0010801151579890
 143    -0.0347208278073801
 144    -0.2441558473965180
 145    -0.0822608258427116
 146    -0.0057819746489800
 147     0.0768841951932717
 148     0.2323998624272634
 149     0.1463821249758585
 150    -0.0248873068457209
 151     0.0059590638658493
 152    -0.0062163799054735
 153    -0.0829576626950660
 154    -0.0117604275295769
 155    -0.0030356011513657
 156     0.0049566420375651
 157     0.0068878930960185
 158     0.0041118298324985
 159    -0.0258079118621935
 160    -0.0395302034552103
 161     0.0204281104657271
 162    -0.0022776438376496
 163    -0.0167662700432056
 164     0.0059303345709084
 165    -0.0000968867938612
 166     0.0049801778873662
 167    -0.0043781713394489
 168     0.0182279544248765
 169     0.0002151418580324
 170     0.0007723051293553
 171     0.0797426410627625
 172     0.0237387853371381
 173     0.0002488789538651
 174     0.0079249530627707
 175    -0.0199983150592371
 176     0.0048373819812962
 177    -0.0265336862526702
 178     0.0415086880211544
 179    -0.0207804887758938
 180    -0.0042137514321394
 181    -0.0175649688569271
 182    -0.0058294553438210
 183    -0.0001510220487952
 184     0.0059465029192153
 Sym= 37A
 Ene= -0.129599
 Spin= Alpha
 Occup= 2.000000
  1     0.0058843981389951
  2    -0.0523263179045637
  3    -0.0726250321976504
  4     0.0083296455942428
  5    -0.0206853154677760
  6    -0.0214569330950531
  7    -0.0109101746069609
  8     0.0081238625822657
  9    -0.0096476144036837
 10    -0.0045716163559531
 11    -0.0023225841360957
 12     0.0016223162066741
 13    -0.0010537057835763
 14    -0.0188689721952168
 15     0.0071811064949626
 16     0.0001654028140927
 17    -0.0001115253663971
 18    -0.0001366026771115
 19     0.0049002423013042
 20    -0.0538748921263466
 21     0.0761486739080464
 22    -0.0077282860381173
 23    -0.0246331844578525
 24    -0.0228649135083655
 25     0.0107162591010674
 26     0.0080471163269900
 27    -0.0111842251156425
 28    -0.2796643914173286
 29     0.2486047391806597
 30     0.0090603083908431
 31     0.0130717824125813
 32     0.0369818458835872
 33    -0.1174492002829210
 34     0.0046241349624311
 35    -0.0270382324086928
 36    -0.0148773209194287
 37     0.0514589048019484
 38    -0.0014814339481465
 39     0.0516680166223644
 40    -0.0029179680063549
 41    -0.0002690034994097
 42    -0.0047650012209366
 43     0.0585015939359421
 44     0.0023390561696019
 45     0.0676355459556408
 46     0.0091897395006450
 47    -0.0255137841017393
 48    -0.0058157909607154
 49     0.0132702273885894
 50     0.0038878387973807
 51    -0.0370779045657907
 52    -0.0062933153813829
 53     0.0386626001822443
 54     0.0064957546267206
 55    -0.0142617538872210
 56    -0.0040073789303561
 57     0.0242353020082977
 58     0.0057065675072607
 59    -0.0679498647392610
 60    -0.0092247407899523
 61    -0.0578647717053012
 62    -0.0022252765720130
 63    -0.0009526307418108
 64     0.0047293686943595
 65    -0.0528895486950543
 66     0.0028861328738518
 67    -0.0523637708974912
 68     0.0015203002929029
 69    -0.0842333084606137
 70     0.0200768087192097
 71     0.2837473986348605
 72     0.0379839956197379
 73     0.0168853520341743
 74     0.0148622016987071
 75     0.1382926505520514
 76    -0.0153021883605324
 77    -0.0379592005749671
 78     0.0114418567352974
 79    -0.0166667443807965
 80    -0.0608749796840335
 81     0.0071873760873670
 82     0.0357180894016743
 83    -0.0267614499594361
 84    -0.0372596794270326
 85     0.0328605000591474
 86    -0.0775106216605281
 87    -0.1166979522571212
 88     0.0885712820418383
 89    -0.0118535604721519
 90    -0.1039781997482805
 91    -0.1132273022907921
 92     0.0279433042765388
 93     0.0024872723650252
 94    -0.0788687501372633
 95    -0.2327455225282221
 96    -0.0664578705674609
 97    -0.0137153652163798
 98     0.0468751333007760
 99    -0.1868243668038929
 100     0.0897849513931352
 101     0.0224042747303073
 102    -0.0267947039862132
 103    -0.0719472142671300
 104    -0.0675629991655857
 105     0.0103743833119405
 106     0.0309472336768113
 107    -0.0638733316855062
 108     0.0705372096333906
 109    -0.0100001184650218
 110     0.0326011530880603
 111     0.0611608353531310
 112     0.0709237073000404
 113    -0.0227001407501360
 114    -0.0257422755467592
 115     0.0692463263319158
 116    -0.0673248087437660
 117     0.0144016828515022
 118     0.0459685809438372
 119     0.1854353768611337
 120     0.0898747487117135
 121    -0.0027793758209556
 122    -0.0807603604113129
 123     0.2357899807469963
 124    -0.0666778544965312
 125     0.0117638420792234
 126    -0.1044201559845207
 127     0.1164344986433556
 128     0.0291570572853290
 129    -0.0327492037102786
 130    -0.0783928787029130
 131     0.1197632638931562
 132     0.0902421805059569
 133    -0.0070036803571578
 134     0.0340713519964602
 135     0.0276014411410460
 136    -0.0380544443940444
 137     0.0381200681410318
 138     0.0100080275394499
 139     0.0180774258231501
 140    -0.0620809389185540
 141    -0.0174302177905610
 142     0.0156620200654177
 143    -0.1385994386659972
 144    -0.0146416369310774
 145     0.0854418774051980
 146     0.0223367222594268
 147    -0.2874590992831147
 148     0.0371373327961339
 149    -0.2835513433673177
 150    -0.2526059726907042
 151    -0.0060582563072766
 152     0.0084232036170964
 153    -0.0381691892075003
 154     0.1189288963815090
 155     0.0043557726022995
 156     0.0273707891888340
 157    -0.0151025499836029
 158     0.0057478888610936
 159     0.0531879301678595
 160     0.0741778959294783
 161     0.0085864414821137
 162     0.0220048972266092
 163     0.0219738201248875
 164    -0.0110534670654659
 165    -0.0082799320460137
 166    -0.0099708781092092
 167    -0.0047132150591611
 168     0.0026578905019331
 169    -0.0016415318114523
 170    -0.0008970188727006
 171     0.0192200444229975
 172    -0.0074899302088166
 173     0.0001695735638054
 174     0.0001100765335827
 175    -0.0000598492102414
 176     0.0055375722607638
 177     0.0544602847819902
 178    -0.0763970693249734
 179    -0.0082753295802155
 180     0.0240826601910442
 181     0.0227577845696015
 182     0.0108223494001567
 183    -0.0081918425370886
 184    -0.0111326843603081
 Sym= 38A
 Ene= -0.125232
 Spin= Alpha
 Occup= 2.000000
  1    -0.0781494113113330
  2    -0.0879006007475645
  3    -0.1193153930778345
  4    -0.1855825632110502
  5     0.0883905574808527
  6    -0.0707635756896441
  7    -0.0194279397342122
  8    -0.0135733086441835
  9    -0.0087247988363233
 10     0.1693663135138614
 11     0.2255120175600520
 12    -0.0001236146404021
 13    -0.0000499956766425
 14     0.0945083552327484
 15    -0.0813341522205328
 16    -0.0000634003985588
 17     0.0254339827411454
 18    -0.0112769048666464
 19    -0.0780577069544729
 20    -0.0878105398258880
 21     0.1190485361038308
 22     0.1853364006713526
 23     0.0885156567269253
 24    -0.0705900128204238
 25     0.0193923054498089
 26    -0.0135817579305065
 27    -0.0087044631643386
 28     0.0372212323840106
 29    -0.0234224300849774
 30    -0.0001184012832264
 31    -0.0007650674150229
 32    -0.2556381913193176
 33    -0.0790901393789931
 34    -0.0000643223456747
 35     0.0003791909824268
 36     0.0319097438916800
 37    -0.0038287244998481
 38    -0.0066378164971016
 39    -0.0040803506477504
 40    -0.0066502118802031
 41     0.0074228264059029
 42     0.0007539081400826
 43     0.0034797611305420
 44    -0.0002027209036168
 45     0.0028300607732927
 46     0.0001640972089866
 47     0.0093466175073749
 48     0.0012831537576762
 49    -0.0057306883396783
 50    -0.0007973052314236
 51    -0.0030378116206294
 52    -0.0002205840063727
 53    -0.0011107196905313
 54    -0.0001994277279607
 55     0.0024379571578878
 56     0.0005567874550505
 57    -0.0058323581508532
 58    -0.0010098912316695
 59     0.0011559018591735
 60     0.0001641666116631
 61    -0.0018602468910265
 62     0.0004332602987727
 63    -0.0066495058003077
 64    -0.0008702074952983
 65     0.0091352516375910
 66     0.0097668668163193
 67     0.0097595640153463
 68     0.0097948992625217
 69     0.0021339382198199
 70    -0.0013433324017802
 71    -0.0230756986129625
 72    -0.0097560109359339
 73     0.0037772415039684
 74    -0.0004494799937851
 75    -0.0103481860915779
 76     0.0045987712606169
 77    -0.0007100717380634
 78    -0.0041887659563941
 79    -0.0020663260656127
 80    -0.0099598932351321
 81    -0.0026782154709367
 82    -0.0023848517324141
 83    -0.0019102706214788
 84    -0.0131918254510006
 85    -0.0002621375528635
 86     0.0045456278909681
 87     0.0046298371264080
 88     0.0097974479205328
 89     0.0021404669356534
 90     0.0037248486827539
 91     0.0041088368428939
 92     0.0148543922369496
 93     0.0022765883918035
 94     0.0036958436923059
 95     0.0104467444271846
 96    -0.0110228092116195
 97    -0.0034203551883749
 98    -0.0025360158740573
 99     0.0136352361284585
 100     0.0116722698876266
 101     0.0018549893331689
 102    -0.0054681865389180
 103     0.0053630073337273
 104     0.0080908373411560
 105     0.0024029785401707
 106     0.0052747155081184
 107     0.0079810155840833
 108     0.0000344576999166
 109    -0.0026418293613664
 110     0.0042381408726712
 111    -0.0031238016611622
 112    -0.0073497129019786
 113    -0.0017850045665661
 114    -0.0054296801922075
 115    -0.0010560732929000
 116     0.0006690747964620
 117     0.0010562980681153
 118    -0.0020661344059642
 119    -0.0110638410105571
 120     0.0156105281062094
 121     0.0001216231906222
 122     0.0044878356574095
 123    -0.0149899681397853
 124    -0.0160497144708195
 125    -0.0031309567972074
 126     0.0040601884413538
 127    -0.0100455832954006
 128     0.0090227423209087
 129    -0.0011305147513040
 130     0.0095678682568603
 131    -0.0066457077001000
 132     0.0054137616778756
 133     0.0043179883155799
 134     0.0017338262784052
 135    -0.0008565645303191
 136    -0.0078264139741022
 137     0.0016690349546829
 138    -0.0055591727393720
 139    -0.0013439553321568
 140    -0.0062512648994953
 141    -0.0035757412806002
 142    -0.0008815845659259
 143     0.0105921190337016
 144    -0.0058924255537968
 145    -0.0075157998297970
 146    -0.0021803259563585
 147     0.0352297209516589
 148    -0.0016295835512297
 149     0.0627181007182603
 150     0.0302634609212191
 151     0.0001656772728212
 152    -0.0007132470545044
 153     0.3666677925545127
 154     0.1154043668949594
 155    -0.0002465065312150
 156     0.0000735010597383
 157     0.0465136935941493
 158    -0.1134871501459110
 159     0.1260004774365215
 160     0.1708404221821335
 161    -0.2682059501243381
 162    -0.1286324178622108
 163     0.1017101982276133
 164    -0.0279020501787813
 165     0.0196700343340109
 166    -0.0124181674110862
 167     0.2471213067371101
 168    -0.3267919439987488
 169     0.0001351107662555
 170     0.0000316761110692
 171    -0.1310346747634995
 172     0.1198419531224173
 173    -0.0000712190600047
 174    -0.0365754863454330
 175    -0.0176121479214712
 176    -0.1134510874289854
 177     0.1258668743113285
 178    -0.1705908305197527
 179     0.2680071798657188
 180    -0.1287113740913379
 181     0.1015561911624385
 182     0.0278673332786269
 183     0.0196889130110842
 184    -0.0123905556687818
 Sym= 39A
 Ene= -0.125132
 Spin= Alpha
 Occup= 2.000000
  1    -0.1145690198711414
  2    -0.1249268745185029
  3    -0.1688778800399490
  4    -0.2683299579723017
  5     0.1298963846809134
  6    -0.1010907568149703
  7    -0.0276846122590072
  8    -0.0196796808286169
  9    -0.0122231016181888
 10     0.2508907280150326
 11     0.3281075172436720
 12     0.0000862607392712
 13    -0.0000455907946195
 14     0.1202187768890129
 15    -0.1239140307577149
 16     0.0000184522769331
 17     0.0361790956650566
 18    -0.0200626072032655
 19    -0.1139808305959156
 20    -0.1247509546755964
 21     0.1678997115187481
 22     0.2677749702933182
 23     0.1306463979576858
 24    -0.1005787804685651
 25     0.0276280484488708
 26    -0.0196500609403968
 27    -0.0119899004523163
 28     0.0768248588543343
 29    -0.0204945148785470
 30    -0.0018060957313309
 31    -0.0019047540268192
 32    -0.3595168588900549
 33    -0.1182314152954330
 34    -0.0005503776652832
 35    -0.0014164780718066
 36     0.0471857730956601
 37    -0.0171534086510499
 38    -0.0101141687097550
 39    -0.0148655015447023
 40    -0.0100011414487333
 41    -0.0007459964874380
 42     0.0004690132171098
 43    -0.0041646210619867
 44    -0.0007267939784932
 45    -0.0113934477277905
 46    -0.0009588409789885
 47    -0.0084704635849383
 48    -0.0005604427441839
 49     0.0091184478321771
 50     0.0006293319599315
 51     0.0111253521935366
 52     0.0011303048269706
 53     0.0114022958270902
 54     0.0011182641189624
 55     0.0105897775983567
 56     0.0008783401884203
 57    -0.0113096197576788
 58    -0.0009943828669660
 59    -0.0114160465270100
 60    -0.0009279668277971
 61    -0.0049008412371823
 62    -0.0005938626414444
 63    -0.0033988522735873
 64     0.0001481381967763
 65    -0.0123235334047277
 66    -0.0070160136006426
 67    -0.0144919545461927
 68    -0.0071107915363191
 69     0.0153531072438608
 70    -0.0020565729423896
 71    -0.0361696499659189
 72     0.0224312217888707
 73     0.0001213229365424
 74    -0.0008167027375386
 75    -0.0027066363883318
 76    -0.0300913779552518
 77    -0.0030540091617529
 78    -0.0056820706122220
 79     0.0085407155195938
 80     0.0094531564508920
 81    -0.0051325390161912
 82     0.0109966059182834
 83     0.0067808519913529
 84     0.0130533003151203
 85     0.0039814117438149
 86     0.0146566107416736
 87     0.0046196781261176
 88    -0.0112477766035597
 89     0.0033173320289840
 90     0.0007382778998754
 91     0.0162487428066581
 92    -0.0140439078900881
 93    -0.0065612418025795
 94     0.0023587582320166
 95     0.0131115342945391
 96    -0.0166758724789302
 97     0.0062609495876749
 98     0.0004253136665995
 99    -0.0037316391894236
 100     0.0135716492931304
 101     0.0002221534133004
 102    -0.0003925249096712
 103    -0.0096151155453046
 104    -0.0202667120405642
 105     0.0010242875646235
 106    -0.0015945590809930
 107    -0.0108614336962377
 108    -0.0216740624513895
 109     0.0001148358538506
 110     0.0031789758128579
 111    -0.0130165095802454
 112     0.0202991315517387
 113    -0.0004530500088923
 114    -0.0016004734796036
 115    -0.0109126325112786
 116     0.0218983553368435
 117     0.0070493002983452
 118    -0.0012738135309298
 119    -0.0086490019459992
 120    -0.0087567666396181
 121    -0.0069420862632774
 122    -0.0008728352673902
 123     0.0080006084293078
 124     0.0118112457136147
 125     0.0023631139226747
 126     0.0009785531023982
 127     0.0135502677859379
 128     0.0182226776105218
 129     0.0038337792117409
 130    -0.0117950491298980
 131     0.0025444785163026
 132     0.0138641468639616
 133    -0.0038365887390101
 134    -0.0112586810297387
 135     0.0069914681523670
 136    -0.0166822823968826
 137    -0.0026806550743543
 138     0.0036902181250308
 139     0.0087310939574038
 140    -0.0122620324196850
 141    -0.0012084543780781
 142     0.0006246027716804
 143     0.0015153946167429
 144     0.0296989797243680
 145     0.0133910474307038
 146     0.0015168830222904
 147    -0.0249285949769620
 148    -0.0244524011258698
 149    -0.0579359405127195
 150    -0.0102971751737151
 151    -0.0010870950949355
 152     0.0011290929974161
 153    -0.2457145296237831
 154    -0.0828522320950008
 155     0.0004789538361019
 156    -0.0015139581319636
 157    -0.0327816958545535
 158     0.0793060526438695
 159    -0.0857695333004808
 160    -0.1157283730655940
 161     0.1848953618223874
 162     0.0900694509194213
 163    -0.0694038924603831
 164     0.0190166283856779
 165    -0.0135549660437636
 166     0.0083368135809063
 167    -0.1746376369245632
 168     0.2268166008341540
 169    -0.0000027664921400
 170    -0.0000799173597841
 171     0.0787426723374428
 172    -0.0870166365667342
 173    -0.0000064397663811
 174     0.0248057130374550
 175     0.0147670092715003
 176     0.0790393099625347
 177    -0.0856100995432827
 178     0.1151871160749841
 179    -0.1846560598199163
 180     0.0904982439880485
 181    -0.0691475996484223
 182    -0.0189922743477321
 183    -0.0135509618487319
 184     0.0081920438994689
 Sym= 40A
 Ene= -0.121705
 Spin= Alpha
 Occup= 2.000000
  1     0.0147427323065926
  2    -0.1065465848429185
  3    -0.1173380243846131
  4     0.0427893005586332
  5    -0.0339432100391153
  6    -0.0259994388032325
  7    -0.0125479800253042
  8     0.0122671456359839
  9    -0.0114417763917546
 10    -0.0094599413118389
 11    -0.0180712916670999
 12    -0.0028544026317984
 13     0.0004060681788158
 14    -0.0694482021583573
 15     0.0161597091830457
 16    -0.0007986460163180
 17    -0.0069857112265043
 18    -0.0047393759374473
 19     0.0126020211844323
 20    -0.1057319110277235
 21     0.1186763913321161
 22    -0.0419381273728054
 23    -0.0348904946980203
 24    -0.0268084574336938
 25     0.0126009834684282
 26     0.0120023609752238
 27    -0.0120032409701439
 28    -0.3062819738902373
 29     0.3052269718197778
 30     0.0042975264413202
 31    -0.0006308684674358
 32     0.0608316471846276
 33    -0.1198497232327976
 34     0.0005442781142457
 35    -0.0155031984526766
 36     0.0003441175549403
 37     0.0449556396922389
 38     0.0016196456382385
 39     0.0212484159365547
 40    -0.0018881644288183
 41    -0.0145404337330897
 42    -0.0038531895394416
 43     0.0067201441942719
 44    -0.0009970821483110
 45    -0.0212173013744913
 46    -0.0023524402346299
 47    -0.0321962038398198
 48    -0.0036492860039391
 49     0.0621450202866723
 50     0.0073055100149582
 51     0.0191913791542550
 52    -0.0004733738653045
 53     0.0196272895906570
 54    -0.0004036743403357
 55     0.0621360284750005
 56     0.0072838213421406
 57    -0.0320782199519086
 58    -0.0035872893835835
 59    -0.0224817996653433
 60    -0.0025018868951037
 61     0.0053085810499460
 62    -0.0010884511709966
 63    -0.0144146419483110
 64    -0.0037820934352879
 65     0.0205727432390494
 66    -0.0018939215599408
 67     0.0441428034542147
 68     0.0015596431784153
 69    -0.0358454196244984
 70     0.0001740082880838
 71     0.2448370614935242
 72     0.1080632944605836
 73    -0.0001659169527046
 74     0.0336182941182511
 75     0.0269037081245862
 76    -0.0906721345260213
 77    -0.0291562347542730
 78    -0.0582768651967604
 79    -0.0556355307743521
 80     0.0574805565404088
 81    -0.0043208048301073
 82    -0.0113784858251685
 83    -0.0682665157898329
 84     0.0061773229512206
 85     0.0132663332784053
 86    -0.0530328820157392
 87    -0.1494728082488796
 88    -0.0424964080057574
 89     0.0142678764316851
 90    -0.1031456339579350
 91    -0.1101844982618368
 92    -0.0064286279706683
 93    -0.0260562946463709
 94    -0.0373312809914187
 95    -0.1629266531451800
 96    -0.0572992574783603
 97     0.0175663809677190
 98    -0.0206958393839266
 99     0.0554929586634668
 100     0.0545457465189956
 101     0.0071276315576330
 102     0.0202905704935835
 103     0.1129944191322851
 104    -0.0847018353770471
 105    -0.0071144359657061
 106     0.0185217197951887
 107     0.1069721186043714
 108    -0.0829371528313536
 109    -0.0076021618870936
 110    -0.0174238258699741
 111     0.1074290778531450
 112     0.0831087688425554
 113     0.0066369695427143
 114    -0.0204129217788585
 115     0.1138549963960899
 116     0.0843047445906646
 117     0.0179029391964097
 118     0.0209098131015740
 119     0.0568147329214660
 120    -0.0527640397388428
 121    -0.0259653481202850
 122     0.0372412533159486
 123    -0.1605934283285983
 124     0.0557756882101589
 125     0.0142445264243847
 126     0.1013991679626470
 127    -0.1092983726153686
 128     0.0078385752701043
 129     0.0127779346372124
 130     0.0519263727863834
 131    -0.1489577285746294
 132     0.0435896901828005
 133    -0.0044571322366237
 134     0.0115985846048623
 135    -0.0675115548238149
 136    -0.0078719983191127
 137    -0.0284257166748864
 138     0.0584932706303563
 139    -0.0556111354664851
 140    -0.0584117536690287
 141    -0.0004420645614407
 142    -0.0332945206787017
 143     0.0257956894053991
 144     0.0911366919638418
 145    -0.0346433326260259
 146    -0.0016051153014937
 147     0.2417274222851560
 148    -0.1078626751065191
 149     0.3002504939395056
 150     0.3030402254569499
 151     0.0004136223987448
 152     0.0067697929193454
 153     0.0598556053921544
 154    -0.1190386777031620
 155    -0.0003569594358560
 156    -0.0153800836474973
 157    -0.0006585260544313
 158    -0.0134382474592974
 159    -0.1061276198365829
 160    -0.1173268842497208
 161    -0.0414143805702833
 162    -0.0345774972615671
 163    -0.0263117414853833
 164     0.0124789566825742
 165     0.0121106951608429
 166     0.0115432476006451
 167     0.0075570526736914
 168    -0.0166584974897256
 169    -0.0029577045561584
 170    -0.0009323787958137
 171    -0.0698200865566602
 172     0.0152081685777138
 173     0.0008779162486608
 174    -0.0067844572059996
 175     0.0049487236215670
 176    -0.0126477525765629
 177    -0.1045881343167347
 178     0.1164925975935788
 179     0.0409310251009222
 180    -0.0320662508162659
 181    -0.0262619186370657
 182    -0.0124705746127573
 183     0.0117913409837873
 184     0.0116355026668507
 Sym= 41A
 Ene= -0.117654
 Spin= Alpha
 Occup= 2.000000
  1    -0.0004292526565310
  2    -0.0142055575295824
  3    -0.0124032534885095
  4     0.0066842333381569
  5    -0.0318759118010127
  6     0.0004414563357102
  7     0.0007649992682307
  8     0.0015274278531815
  9    -0.0032187707935332
 10     0.0025510397404435
 11    -0.0035204561932009
 12    -0.0323432891384528
 13     0.0381306794216080
 14     0.0035203091864419
 15     0.0008390126310644
 16    -0.0083552460249263
 17     0.0010978748318309
 18     0.0003918874308984
 19    -0.0031898634280721
 20     0.0248505161793914
 21    -0.0119689258418172
 22     0.0072016227676823
 23     0.0238392985660326
 24     0.0003689024586524
 25     0.0004491722176728
 26    -0.0025171208385856
 27     0.0013328375207863
 28     0.0000219180464430
 29    -0.0110271846984913
 30    -0.0291109990539639
 31    -0.0931750261960987
 32    -0.0011743618874431
 33    -0.0038694054158502
 34    -0.0145154179090243
 35    -0.0007857531106581
 36    -0.0050586612112052
 37     0.0742294880252039
 38     0.0049289615640463
 39    -0.0728401917350709
 40    -0.0067262280666187
 41     0.1400710138659920
 42     0.0110625672794793
 43    -0.1387558986014164
 44    -0.0118031468604179
 45    -0.1213532579655917
 46    -0.0066251234588584
 47     0.1232353330715604
 48     0.0067695215488286
 49     0.1975962170233956
 50     0.0160366091102447
 51    -0.2018070260455627
 52    -0.0163708688773425
 53    -0.2020120089458958
 54    -0.0163218144883812
 55     0.1972620811977897
 56     0.0159487886859472
 57     0.1254125438042596
 58     0.0070119180943221
 59    -0.1229069577067809
 60    -0.0067916383257450
 61    -0.1398115267192826
 62    -0.0118888289219291
 63     0.1417952737805945
 64     0.0112302468082071
 65    -0.0737693881070822
 66    -0.0067800934461627
 67     0.0749708748777187
 68     0.0050019809066902
 69     0.0003326612231902
 70    -0.0783518817123612
 71    -0.0009708789500657
 72    -0.0057899496415948
 73    -0.0001545001986544
 74     0.2127912602703255
 75    -0.0379789152960325
 76     0.0076985865421807
 77    -0.0235080471358347
 78    -0.1522893885582476
 79     0.1153558037834635
 80     0.0309208785900019
 81     0.0262376048111326
 82    -0.1513054803416090
 83     0.1165634407909595
 84    -0.0459892851278955
 85    -0.0012702328796802
 86     0.0987907380228044
 87    -0.0132964641759421
 88    -0.0180704693523986
 89    -0.0011236992304928
 90     0.1013774717948477
 91    -0.0111254855236969
 92     0.0218418499909505
 93     0.0015917125360238
 94    -0.1168273122703333
 95     0.0361358940188371
 96     0.0017271671670088
 97    -0.0005974609634912
 98    -0.2488130256446951
 99    -0.0145518604252032
 100    -0.0001550114034135
 101    -0.0137469852696696
 102     0.2136788904858692
 103    -0.0138517407552668
 104     0.0152392932375352
 105     0.0130572325888806
 106     0.2134296409158539
 107    -0.0208276105827837
 108    -0.0123330884173594
 109     0.0133170147474950
 110    -0.2137696575638342
 111    -0.0191846943865522
 112     0.0126157239090832
 113    -0.0136814042550975
 114    -0.2133954621719760
 115    -0.0136508903422042
 116    -0.0155615317020581
 117    -0.0008476287157920
 118     0.2492507413863084
 119    -0.0138506561825700
 120    -0.0007383049208629
 121     0.0016264294930827
 122     0.1179254834221725
 123     0.0370615593545734
 124    -0.0010491441977539
 125    -0.0010647359936481
 126    -0.1029756397042428
 127    -0.0116724913924508
 128    -0.0231861500706764
 129    -0.0011416414852067
 130    -0.1005967208359808
 131    -0.0133591872555445
 132     0.0181185903665571
 133     0.0262309353258776
 134     0.1534663130781291
 135     0.1167904865785328
 136     0.0474331788006701
 137    -0.0235973598401541
 138     0.1542063771465343
 139     0.1161429628904465
 140    -0.0312473087807854
 141    -0.0001997466796775
 142    -0.2151691240951494
 143    -0.0390571375664281
 144    -0.0079541134624934
 145     0.0001233384049239
 146     0.0791981894034352
 147    -0.0011468637605050
 148     0.0063565173630953
 149    -0.0009776763893689
 150    -0.0138569230688094
 151    -0.0282597572260793
 152     0.0942751366812507
 153    -0.0011610284920276
 154    -0.0031824691146540
 155     0.0146804430710871
 156    -0.0006675881728274
 157     0.0050512449340542
 158     0.0001234604437289
 159    -0.0134561504300938
 160    -0.0114878162908892
 161    -0.0062602334601651
 162    -0.0320493286884641
 163     0.0007357166558130
 164    -0.0009036052147648
 165     0.0014784317410783
 166     0.0031560110024818
 167    -0.0023098522200298
 168    -0.0034606525416641
 169    -0.0332476611622639
 170    -0.0395122996484670
 171     0.0055255525505171
 172     0.0007743239143506
 173     0.0085455414518533
 174     0.0012477741532575
 175    -0.0005729806988234
 176     0.0036105808092525
 177     0.0267003620094792
 178    -0.0126774544170787
 179    -0.0084459246955577
 180     0.0242325651519804
 181     0.0002523877595697
 182    -0.0003655383107919
 183    -0.0027273206828997
 184    -0.0013417868487776
 Sym= 42A
 Ene= -0.115664
 Spin= Alpha
 Occup= 2.000000
  1    -0.1247426373762666
  2     0.0599156563635370
  3    -0.1283190095639697
  4     0.1092112342197235
  5    -0.1311265242586566
  6     0.0302886054760829
  7     0.0118487264523153
  8     0.0062237110741896
  9    -0.0132125094592508
 10     0.3177362589199558
 11    -0.1071438972853492
 12     0.0054543950366345
 13    -0.0121209805144294
 14    -0.3037385591597799
 15    -0.0061625132707391
 16     0.0009391582672853
 17    -0.0099027097644409
 18    -0.0275393609751607
 19    -0.1138472882969560
 20     0.0522928044016034
 21     0.1188877696583770
 22    -0.1186890952369398
 23    -0.1261623084695250
 24     0.0363508593681442
 25    -0.0124847485521307
 26     0.0076200366022836
 27    -0.0116227886171005
 28     0.1711579058467485
 29     0.0871008328053587
 30    -0.0186231957108940
 31    -0.0038193712512219
 32    -0.0808458996167665
 33    -0.1031198330278881
 34    -0.0006490591555598
 35    -0.0116319092503459
 36     0.0236884943868200
 37    -0.0080294373460415
 38    -0.0024733576123573
 39    -0.0059015709034665
 40    -0.0027369221487887
 41    -0.0521922601558656
 42    -0.0044072784745546
 43    -0.0350831440272076
 44    -0.0032050093799799
 45    -0.0365021657593728
 46    -0.0024870433514075
 47    -0.0558412843877221
 48    -0.0053048904620383
 49     0.0202989921743166
 50     0.0040046378427840
 51     0.0146556721042213
 52     0.0024279686677184
 53    -0.0129404542808377
 54    -0.0022977333366041
 55    -0.0201278622080808
 56    -0.0039979024538967
 57     0.0554110748516851
 58     0.0052479645489166
 59     0.0365947334958915
 60     0.0024391700943924
 61     0.0355714336096740
 62     0.0033096630085532
 63     0.0519757330129176
 64     0.0044275279414400
 65     0.0055157557108202
 66     0.0029379588604689
 67     0.0072795288896230
 68     0.0026693442688391
 69     0.0384138900452755
 70    -0.0011071815006760
 71     0.0178679077954070
 72     0.0718087639764582
 73    -0.0129858777218149
 74    -0.0004608732757419
 75     0.0275788354136004
 76    -0.0676016525318272
 77     0.0058062386239788
 78     0.0093331505047225
 79     0.0082054772672203
 80     0.0894045797681560
 81     0.0086278867173028
 82     0.0182967255705465
 83     0.0128836371234304
 84     0.0940254647906254
 85     0.0006790363924114
 86    -0.0187828011229255
 87    -0.0168747953097694
 88    -0.0895138920641978
 89    -0.0055469317408554
 90    -0.0046768686592483
 91    -0.0067484516679386
 92    -0.0971452183770322
 93    -0.0051228035740347
 94    -0.0054677348430359
 95    -0.0250513934781883
 96     0.0882228161033160
 97     0.0213571252491962
 98     0.0035249322329773
 99    -0.0353628122459449
 100    -0.0985756143318284
 101    -0.0130091494554202
 102     0.0364065458151158
 103     0.0010986652865231
 104    -0.0125058377097481
 105    -0.0144724904673257
 106    -0.0346090652855799
 107    -0.0264594116693669
 108     0.0032100559063701
 109     0.0143491610020958
 110    -0.0337767389958976
 111     0.0266238566826198
 112     0.0051101560788507
 113     0.0130986840645011
 114     0.0373892287915327
 115    -0.0010539335179733
 116    -0.0104263300316848
 117    -0.0212303796575929
 118     0.0025732540811831
 119     0.0353505052933376
 120    -0.1003233628708820
 121     0.0045463694226715
 122    -0.0054641570931474
 123     0.0246700874362033
 124     0.0901308655151914
 125     0.0057992386103319
 126    -0.0039461249043157
 127     0.0066951621891695
 128    -0.0971862320063912
 129    -0.0002492335082830
 130    -0.0190773210483280
 131     0.0162608254795269
 132    -0.0895670122596274
 133    -0.0090447596147893
 134     0.0178921746873827
 135    -0.0137027745672929
 136     0.0940697868083512
 137    -0.0062119723178445
 138     0.0096363421366509
 139    -0.0086288625518938
 140     0.0894329619387857
 141     0.0132866178065166
 142    -0.0001846930584578
 143    -0.0276300022642004
 144    -0.0661666428307145
 145    -0.0390974817401684
 146    -0.0010326571788997
 147    -0.0170014978823173
 148     0.0700990910924476
 149     0.1823608238773448
 150    -0.0855571369970037
 151     0.0173218623406280
 152    -0.0047050500968866
 153     0.0900802691396226
 154     0.1094379225474315
 155    -0.0007429893429712
 156     0.0120227085320955
 157     0.0253753469887373
 158    -0.1342368647420039
 159    -0.0675707586657289
 160     0.1385019567669433
 161     0.1184704867455157
 162     0.1442208938728383
 163    -0.0337431687729984
 164     0.0131721003067970
 165    -0.0067016413955685
 166    -0.0142343371620505
 167     0.3420238036761489
 168     0.1180204356477594
 169    -0.0046069760678435
 170    -0.0101344000591371
 171     0.3223205734840320
 172     0.0053286024175081
 173     0.0007781726215141
 174     0.0106126167291645
 175    -0.0289852637301441
 176    -0.1243705592347837
 177    -0.0614161561802880
 178    -0.1296049641640795
 179    -0.1267492155427919
 180     0.1387173936615538
 181    -0.0391870748931461
 182    -0.0137332976863692
 183    -0.0078836845293121
 184    -0.0127304889634771
 Sym= 43A
 Ene= -0.115263
 Spin= Alpha
 Occup= 2.000000
  1    -0.1494446172417232
  2     0.1154341711519545
  3    -0.1763910275036057
  4     0.1323920239681957
  5    -0.1998544776503138
  6     0.0432077400805547
  7     0.0181088594634979
  8     0.0060952438740649
  9    -0.0172011016971105
 10     0.3513476500474357
 11    -0.1666252412717162
 12     0.0007446323769438
 13    -0.0017837003843241
 14    -0.2683442849957670
 15     0.0171672371169061
 16     0.0001274858619556
 17    -0.0120833857988006
 18    -0.0216048879662469
 19    -0.1481407248614582
 20     0.1140659994045253
 21     0.1755405034721030
 22    -0.1333790740144392
 23    -0.1998835892617195
 24     0.0437755907007811
 25    -0.0181921883815555
 26     0.0062868067272327
 27    -0.0171103998052195
 28     0.1292102600137570
 29    -0.0191042482557204
 30    -0.0013874827492212
 31     0.0006078071821911
 32    -0.1384563404534087
 33    -0.0997658603534349
 34     0.0001064961262861
 35    -0.0043219790498852
 36     0.0266571722824360
 37     0.0061981442439598
 38    -0.0031487858792690
 39     0.0062703286376407
 40    -0.0029396941079577
 41    -0.0042499551120832
 42    -0.0007298351280138
 43    -0.0014014423270846
 44    -0.0010186474360219
 45     0.0022036494295716
 46     0.0004815182768570
 47     0.0006867036414303
 48     0.0004805693861742
 49    -0.0102628432723893
 50    -0.0008205997378273
 51    -0.0056165868672584
 52    -0.0003241942714502
 53    -0.0067442069136941
 54    -0.0005176816945116
 55    -0.0119151716692782
 56    -0.0011520746103520
 57     0.0053268873324149
 58     0.0009245217597012
 59     0.0052246525059231
 60     0.0006868552566212
 61     0.0014970280554789
 62    -0.0007641142934427
 63     0.0000855179955511
 64    -0.0003753086330061
 65     0.0068412607496498
 66    -0.0027496046011717
 67     0.0070058241097359
 68    -0.0029916644158049
 69     0.0097923699706915
 70     0.0002167379776608
 71    -0.0111491881495617
 72    -0.0171163248554481
 73    -0.0027416479682867
 74    -0.0025097532776885
 75    -0.0001983881757219
 76     0.0136635193906470
 77     0.0038064074408185
 78     0.0063528501713041
 79    -0.0017985470729485
 80     0.0018087566786847
 81     0.0032850951906835
 82    -0.0020293501255692
 83     0.0015695010590018
 84     0.0018882776464109
 85    -0.0025764615587572
 86    -0.0048008426163642
 87     0.0049218517747322
 88    -0.0013728112455977
 89    -0.0032310455272109
 90     0.0058381155213501
 91    -0.0012786217859384
 92    -0.0010417327412286
 93     0.0049925326977667
 94     0.0016159175949456
 95     0.0030536493273178
 96     0.0198805651821090
 97    -0.0011617979657518
 98     0.0027966208894473
 99    -0.0018726836942590
 100    -0.0184463839908738
 101    -0.0003981891162643
 102    -0.0004308095691128
 103    -0.0012679231117067
 104     0.0174665496152626
 105    -0.0001267939470680
 106    -0.0041483056146015
 107    -0.0013565698323334
 108     0.0182266913653439
 109     0.0010817493908458
 110     0.0013360970111225
 111     0.0009033488064940
 112    -0.0178774741265497
 113     0.0007065054251351
 114     0.0034801180318549
 115    -0.0013487668012502
 116    -0.0184086908749667
 117    -0.0029347371738846
 118    -0.0025535578801353
 119     0.0012199019047661
 120     0.0102131813208682
 121     0.0053639289674991
 122    -0.0020867555945055
 123     0.0051769428006378
 124    -0.0124857067445132
 125    -0.0027882664708186
 126    -0.0061979314362521
 127    -0.0007594725454596
 128    -0.0070343259769895
 129    -0.0026352734277707
 130     0.0032280181544456
 131     0.0062754759600438
 132    -0.0060740463148219
 133     0.0025749234074196
 134     0.0036605774179767
 135     0.0003892909865426
 136     0.0059269714245347
 137     0.0033084365741816
 138    -0.0055396947326118
 139    -0.0025747738608216
 140     0.0056151876403404
 141    -0.0017181294837557
 142     0.0024582403355432
 143    -0.0026054081998257
 144    -0.0193765267814269
 145     0.0067307268530842
 146    -0.0001845659742516
 147    -0.0127091143117402
 148     0.0232132364050378
 149    -0.1159624027087680
 150    -0.0268025057833378
 151     0.0006982651190536
 152    -0.0020424063047385
 153    -0.1340319902290662
 154    -0.0928721172288847
 155    -0.0001682767160288
 156    -0.0033659730021577
 157    -0.0251184978072080
 158     0.1411819830589203
 159     0.1126149570930941
 160    -0.1687113362183973
 161    -0.1253113361127551
 162    -0.1917492960115287
 163     0.0412974213016993
 164    -0.0174008163419737
 165     0.0056483574557889
 166     0.0163756896598078
 167    -0.3302590386868852
 168    -0.1608007920217851
 169     0.0003486204902870
 170     0.0019174187299496
 171    -0.2470226363888617
 172     0.0181576967540275
 173    -0.0001298678572796
 174    -0.0114871713567227
 175     0.0196164375091300
 176     0.1411423337886352
 177     0.1109842124858195
 178     0.1691960929911812
 179     0.1260711147044555
 180    -0.1936671844033479
 181     0.0414304381033531
 182     0.0174411892928416
 183     0.0058135856446105
 184     0.0164899353097334
 Sym= 44A
 Ene= -0.114950
 Spin= Alpha
 Occup= 2.000000
  1     0.0207469699455780
  2    -0.0526509245594789
  3     0.0071319905202754
  4     0.0555214633989795
  5    -0.0349900404424406
  6     0.0249166386941722
  7     0.0034475526546758
  8     0.0074166003175045
  9     0.0013389903877638
 10     0.0114369184776473
 11    -0.0083889585414185
 12    -0.0337736850388149
 13     0.1600896833881221
 14    -0.0064765377124992
 15     0.0022106468623479
 16    -0.0089330237005032
 17    -0.0005649041659323
 18    -0.0003387580701041
 19    -0.0321313391360793
 20     0.0612664544664281
 21     0.0260014372922174
 22     0.0440210948628539
 23     0.0150935035824286
 24    -0.0220406356992597
 25     0.0020851248199251
 26    -0.0069355909541845
 27    -0.0031286423075068
 28    -0.0012905597047340
 29    -0.0049830212365189
 30     0.0746308792680155
 31    -0.0215306850991463
 32    -0.0069604927632405
 33    -0.0036045318912797
 34    -0.0065238137921967
 35     0.0003297366306073
 36     0.0007791334384768
 37     0.0030331310495201
 38     0.0003179158973546
 39    -0.0012348290239820
 40    -0.0006146243549335
 41     0.0098011287783513
 42     0.0009797263503014
 43    -0.0060761101758391
 44    -0.0010234121307731
 45    -0.0050645968719930
 46    -0.0003574191158452
 47     0.0093818729532818
 48     0.0007525246060896
 49     0.0057928658521653
 50     0.0003166652212214
 51    -0.0077969043607423
 52    -0.0006455276830249
 53    -0.0068868628025701
 54    -0.0005439865539625
 55     0.0080140837466373
 56     0.0008090256135874
 57    -0.0019492831550281
 58    -0.0004001063287927
 59    -0.0026718082341057
 60    -0.0000061264213922
 61    -0.0018679664610791
 62     0.0018044238817573
 63    -0.0018573453066783
 64    -0.0009988837980372
 65    -0.0066918502460280
 66     0.0011981290267554
 67     0.0049658465205966
 68    -0.0008366262866805
 69    -0.0010384706363889
 70    -0.0007823120570885
 71    -0.0010018628532539
 72    -0.0042831037884426
 73     0.0003650367337380
 74     0.0098593193678481
 75    -0.0038078946391715
 76     0.0039674807358796
 77    -0.0009169382117665
 78    -0.0082921063530796
 79     0.0038086529419015
 80    -0.0032789689329126
 81     0.0004540941307080
 82    -0.0091293038454127
 83     0.0038187540909852
 84    -0.0053547617155620
 85     0.0000591258134194
 86     0.0066783104868395
 87    -0.0015819554814567
 88     0.0041713040722997
 89    -0.0001034614782671
 90     0.0063670286713248
 91    -0.0022933548452731
 92     0.0044793939487543
 93     0.0003019345668132
 94    -0.0073874325581817
 95     0.0036123380913654
 96    -0.0034683149556830
 97    -0.0009264532076298
 98    -0.0077460286381806
 99     0.0021838169422828
 100     0.0039715156248278
 101     0.0002619671114405
 102     0.0048089282941514
 103    -0.0002303689390886
 104     0.0004557020919087
 105     0.0008392125402642
 106     0.0079362145940528
 107     0.0010107384400679
 108     0.0006376039843714
 109     0.0006384802766824
 110    -0.0075274263309380
 111    -0.0022666904585450
 112     0.0011557878368093
 113    -0.0016976226309996
 114    -0.0107793528635893
 115    -0.0005739325522902
 116    -0.0014719449941196
 117     0.0008964710224790
 118     0.0103542235226302
 119    -0.0031585102136379
 120     0.0045627956073588
 121     0.0001528535617948
 122    -0.0021986900426062
 123    -0.0011579743045398
 124    -0.0041115807577142
 125    -0.0003236680009078
 126     0.0004663954833684
 127     0.0033553830822010
 128     0.0016536688905696
 129     0.0001299049927909
 130     0.0012187479748532
 131     0.0019318144179715
 132     0.0074533049873005
 133     0.0028129893039862
 134     0.0001332670181181
 135     0.0043044343548201
 136    -0.0002876219131652
 137    -0.0016807656434561
 138     0.0019714061966028
 139     0.0040453188167941
 140    -0.0077506170325398
 141    -0.0001930941713526
 142    -0.0045641610069497
 143    -0.0001492725104729
 144     0.0040604554174882
 145     0.0007591993004360
 146     0.0117962459414485
 147     0.0018496387287374
 148    -0.0045022949153290
 149     0.0010083779022715
 150     0.0057014198649224
 151    -0.3433895250361948
 152    -0.0732255287389023
 153     0.0080322739363628
 154     0.0033709969699318
 155    -0.0264091171594167
 156    -0.0003083378083480
 157     0.0009137909346961
 158     0.1127637398633942
 159     0.2429816176641033
 160    -0.0690028412335155
 161     0.2260825651486398
 162     0.1125905349490195
 163    -0.1068113040186619
 164     0.0130480452782239
 165    -0.0317133015969970
 166     0.0097605274697592
 167     0.0129071776816230
 168     0.0085629022866520
 169     0.1443161778248294
 170     0.7032387710358037
 171     0.0074583599510707
 172    -0.0020016687157230
 173    -0.0378829704822298
 174     0.0006022949826346
 175    -0.0004578516071353
 176    -0.1253714911135983
 177    -0.2538603903963167
 178    -0.0873914706565899
 179     0.2143819670855305
 180    -0.0918924281689082
 181     0.1031534776767095
 182     0.0114466048061912
 183     0.0312952207389084
 184    -0.0114776649337927
 Sym= 45A
 Ene= -0.114915
 Spin= Alpha
 Occup= 2.000000
  1     0.1138292232829663
  2    -0.2432170991230012
  3     0.0721592583423848
  4     0.2244927443550942
  5    -0.1097155956137744
  6     0.1067056754716449
  7     0.0129434431562763
  8     0.0315816061909051
  9     0.0100537400093093
 10     0.0110250234795492
 11    -0.0062574058334894
 12    -0.1435978225065362
 13     0.7030049646816013
 14    -0.0061845655809455
 15     0.0011737185257669
 16    -0.0377523559525601
 17    -0.0004188338899769
 18    -0.0004462145833964
 19    -0.1243035519279686
 20     0.2534189994747920
 21     0.0847710191853086
 22     0.2161650872778720
 23     0.0941075385657221
 24    -0.1033839059151364
 25     0.0115411678461049
 26    -0.0313730016246085
 27    -0.0112549525013064
 28     0.0032015142327393
 29    -0.0050517181250190
 30     0.3438098045574446
 31    -0.0714415350321584
 32    -0.0065903213052632
 33    -0.0023498718121223
 34    -0.0261228947108357
 35     0.0001376674146186
 36     0.0007883946641187
 37    -0.0067335170418947
 38     0.0007885164053777
 39     0.0077446145559912
 40    -0.0010461901227544
 41    -0.0016477220780344
 42     0.0007097079533304
 43     0.0049579224191361
 44    -0.0015212305454201
 45     0.0053911348385889
 46     0.0001795590456988
 47    -0.0013978901874490
 48     0.0001617626550932
 49    -0.0112214294374292
 50    -0.0010387921886460
 51     0.0107058044219336
 52     0.0008460627901411
 53     0.0115746927277512
 54     0.0009543443527720
 55    -0.0093677621435214
 56    -0.0006341996682446
 57    -0.0099010550807921
 58    -0.0007051158231669
 59     0.0062412512301117
 60     0.0003616325300341
 61     0.0069528913040273
 62     0.0002239482116413
 63    -0.0102308185976603
 64    -0.0006288753937177
 65     0.0042498820622169
 66     0.0001138733737433
 67    -0.0058045990517534
 68     0.0000818399376801
 69    -0.0006332069841850
 70     0.0131979324044311
 71    -0.0019821664249594
 72    -0.0036576493405322
 73     0.0001853580508617
 74    -0.0091792632170042
 75     0.0015022338589801
 76     0.0032185171895568
 77     0.0021457367386632
 78     0.0055489324260605
 79    -0.0060765679391628
 80    -0.0078598144705319
 81    -0.0033929080202688
 82     0.0038835357497147
 83    -0.0064136076014314
 84     0.0011064652777419
 85    -0.0001824279410680
 86    -0.0013178260532146
 87    -0.0012380422817808
 88     0.0071372330374982
 89     0.0005024364736847
 90    -0.0022318110889909
 91    -0.0025106868548655
 92     0.0007983658765724
 93    -0.0003085723118735
 94     0.0008764208071152
 95    -0.0000050238626397
 96    -0.0040041984078046
 97    -0.0007652323860711
 98     0.0143949334843199
 99     0.0028931985431806
 100     0.0043545862246822
 101     0.0018416230908437
 102    -0.0140112139516495
 103     0.0007357355178433
 104    -0.0018179195478396
 105    -0.0009084480274572
 106    -0.0111297387197339
 107     0.0023461298208885
 108     0.0006965380510499
 109    -0.0013614994360326
 110     0.0121356344111288
 111    -0.0004863850499384
 112     0.0002897693339837
 113     0.0003406918621021
 114     0.0094665793543295
 115     0.0004786521758587
 116     0.0014792583163995
 117     0.0008560170846825
 118    -0.0128788971740303
 119    -0.0014343100323099
 120     0.0031667998511262
 121    -0.0005028921962911
 122    -0.0068152141272047
 123    -0.0037358336530271
 124    -0.0026905104297426
 125     0.0002485296776582
 126     0.0067750701426144
 127     0.0009038156477496
 128     0.0052726597318704
 129    -0.0001036264764178
 130     0.0068259513903566
 131     0.0005941649742902
 132     0.0020719072611498
 133    -0.0017260889233845
 134    -0.0101716562587411
 135    -0.0058169236555034
 136    -0.0067950835742324
 137     0.0017882792110560
 138    -0.0099018484999992
 139    -0.0057240381473512
 140    -0.0009461529196304
 141    -0.0004039620889984
 142     0.0126682093667158
 143     0.0046208011724717
 144     0.0033889292955245
 145     0.0010846352214009
 146    -0.0063535330900314
 147     0.0005392793368028
 148    -0.0036536313747949
 149    -0.0026305941268997
 150     0.0042402847509735
 151     0.0810230052765582
 152     0.0115864683382271
 153     0.0051502099316906
 154     0.0027964387502078
 155     0.0054312508426138
 156    -0.0003394813128900
 157     0.0006007981098674
 158    -0.0317565116426938
 159    -0.0591564310566327
 160     0.0266633766883360
 161    -0.0458279348936773
 162    -0.0134632030743401
 163     0.0231862337736761
 164    -0.0022759477654841
 165     0.0069290836298503
 166    -0.0033088586778158
 167     0.0080900593543552
 168     0.0067844690167658
 169    -0.0315561360446266
 170    -0.1591339049739696
 171     0.0039674914377295
 172    -0.0019498902105590
 173     0.0082412749465919
 174     0.0004345429498764
 175    -0.0001487776704057
 176     0.0233115782592172
 177     0.0524914439441322
 178     0.0111244724131908
 179    -0.0545877598475342
 180     0.0294162886343986
 181    -0.0251353362930540
 182    -0.0033043576320108
 183    -0.0073082073618071
 184     0.0018471540770401
 Sym= 46A
 Ene= -0.114229
 Spin= Alpha
 Occup= 2.000000
  1    -0.0769791255800148
  2     0.1482054060952467
  3    -0.1609790145261778
  4     0.0394196792927233
  5    -0.1715400704549386
  6     0.0180250146400486
  7     0.0130323743819479
  8    -0.0017144444030449
  9    -0.0133902981803727
 10     0.1032136821699883
 11    -0.1448557966045232
 12    -0.0002738609119704
 13    -0.0410633520558408
 14     0.0427503572830222
 15     0.0466648553962660
 16     0.0015066722593673
 17    -0.0075921397459484
 18     0.0056811483391952
 19    -0.0792373796341123
 20     0.1169789464022705
 21     0.1660921866636806
 22    -0.0606301788512374
 23    -0.2025794890337399
 24     0.0248288269934051
 25    -0.0139296751410296
 26     0.0012742549770678
 27    -0.0146022819554203
 28    -0.1136456123155774
 29    -0.1900407591145467
 30     0.0068805546952938
 31     0.0126738059251405
 32    -0.1253296417869462
 33    -0.0251668741578610
 34     0.0023890865672775
 35     0.0146345070607051
 36     0.0133386098700246
 37     0.0237218157273091
 38    -0.0020565404764894
 39     0.0148238637080693
 40    -0.0013229091724007
 41     0.0879843391010184
 42     0.0069248650282762
 43     0.0503141241107951
 44     0.0032010986578186
 45     0.0518406134002586
 46     0.0033228467783089
 47     0.0962421058296494
 48     0.0096310001754132
 49    -0.0322495298063553
 50    -0.0067341234229885
 51    -0.0210579374535343
 52    -0.0035118976449967
 53     0.0191181200506419
 54     0.0033529354492241
 55     0.0327826872018254
 56     0.0068066015456941
 57    -0.0961737974909587
 58    -0.0096309480777327
 59    -0.0521465790392581
 60    -0.0032871521442520
 61    -0.0508054518559772
 62    -0.0032345403435237
 63    -0.0878030273937341
 64    -0.0069427954700807
 65    -0.0146371522360928
 66     0.0012938849132380
 67    -0.0232100649867599
 68     0.0020142125184461
 69    -0.0457930018789705
 70    -0.0007919130888239
 71    -0.0430688009677942
 72    -0.1339210360651206
 73     0.0160072248708886
 74     0.0053019844288754
 75    -0.0557442984681712
 76     0.1190719923955788
 77    -0.0079685967170941
 78    -0.0214182379444392
 79    -0.0180044130452994
 80    -0.1402415086897323
 81    -0.0113912028305667
 82    -0.0392995675137919
 83    -0.0212425011341179
 84    -0.1533990081204471
 85    -0.0031243613558681
 86     0.0350873225060298
 87     0.0245063241035941
 88     0.1415637651537315
 89     0.0062385376660692
 90     0.0148379450137702
 91     0.0088535401925896
 92     0.1577879057931682
 93     0.0077684982475465
 94     0.0060093109977218
 95     0.0492230481996535
 96    -0.1373871028808400
 97    -0.0340992533392162
 98    -0.0056523820922119
 99     0.0679129098264214
 100     0.1533186485428256
 101     0.0198188677318740
 102    -0.0581065669166009
 103     0.0017301842020418
 104     0.0204320428382656
 105     0.0219047225636979
 106     0.0519074790358327
 107     0.0480459960663473
 108    -0.0072130806743139
 109    -0.0217728026280791
 110     0.0505602620858409
 111    -0.0479905245211650
 112    -0.0085857400825030
 113    -0.0199380301101214
 114    -0.0596373659904352
 115    -0.0013892099927520
 116     0.0187952732234712
 117     0.0341213648975738
 118    -0.0041954405590890
 119    -0.0677647620329795
 120     0.1548551618546746
 121    -0.0073151932883214
 122     0.0060128022295487
 123    -0.0494881751073868
 124    -0.1389899625144558
 125    -0.0063502830676514
 126     0.0146386752854855
 127    -0.0088818479425710
 128     0.1582034689632112
 129     0.0027118735885375
 130     0.0355713737123481
 131    -0.0243379901427923
 132     0.1420095872542461
 133     0.0117894206415734
 134    -0.0392883228319264
 135     0.0222117805952275
 136    -0.1537486069043590
 137     0.0082648849693317
 138    -0.0215377638688009
 139     0.0186020682520268
 140    -0.1406169077952648
 141    -0.0162513410099434
 142     0.0049561143949278
 143     0.0561905088091109
 144     0.1185734072367838
 145     0.0459897263437020
 146    -0.0010568429434329
 147     0.0434774690546500
 148    -0.1333650944914966
 149    -0.1200550955451577
 150     0.1912665731805368
 151    -0.0116210070432740
 152     0.0146179358220161
 153     0.1244549366698594
 154     0.0243816118114671
 155     0.0020657002266016
 156    -0.0150295523831324
 157     0.0132019985245463
 158    -0.0737009658525950
 159    -0.1438453841208662
 160     0.1603224967999040
 161     0.0409013297958498
 162     0.1707813728124457
 163    -0.0183977977277590
 164     0.0129054134250989
 165     0.0014500105450734
 166    -0.0131989727453433
 167     0.0977926968454456
 168     0.1445043772565025
 169     0.0014268143466714
 170    -0.0348093613439362
 171    -0.0474371522504259
 172    -0.0474288780775796
 173     0.0012571031554247
 174     0.0076748724934890
 175     0.0060308108683617
 176    -0.0791067239421057
 177    -0.1167984157797029
 178    -0.1682752649366963
 179    -0.0577919075133704
 180     0.2021944967115464
 181    -0.0228306206374577
 182    -0.0135299594689051
 183    -0.0009984699458766
 184    -0.0147658023590481
 Sym= 47A
 Ene= -0.112770
 Spin= Alpha
 Occup= 2.000000
  1    -0.0046249320010767
  2     0.3793301262850381
  3     0.0884436398604124
  4    -0.1946564847408461
  5    -0.0462411766226603
  6     0.0362084693066397
  7     0.0170111374401007
  8    -0.0146854824370398
  9     0.0034107036811001
 10     0.0288462508862305
 11     0.0546029819902392
 12    -0.0023024604001454
 13     0.0007868738232369
 14     0.1537796014778108
 15    -0.0851383709991950
 16     0.0000162721667185
 17     0.0195354934686104
 18    -0.0051712862050162
 19    -0.0114321234727851
 20     0.3780725809488584
 21    -0.0813243107170940
 22     0.1970642161286008
 23    -0.0549825891651915
 24     0.0336083516964413
 25    -0.0168256153207781
 26    -0.0149854407741293
 27     0.0023166519962775
 28     0.1194045911903811
 29    -0.0025694046823115
 30     0.0112790393720477
 31     0.0060480212616181
 32     0.0500550996983139
 33    -0.0124247425566959
 34     0.0009273387158330
 35    -0.0230436997133533
 36    -0.0119679820272663
 37    -0.0001001490883777
 38    -0.0025694360497547
 39     0.0026702730014650
 40    -0.0037021703450998
 41    -0.0345981342103449
 42    -0.0042641711963828
 43     0.0254498731457405
 44     0.0019260403526193
 45     0.0275961716377661
 46     0.0041232699252156
 47    -0.0403234436896555
 48    -0.0054640939467034
 49     0.0100132218278979
 50     0.0028069466311118
 51    -0.0046699153405852
 52    -0.0016096850699574
 53     0.0043122892986515
 54     0.0016362062455281
 55    -0.0103278538875983
 56    -0.0028813714722119
 57     0.0409186264157506
 58     0.0055279246792497
 59    -0.0282257640319776
 60    -0.0041725791633672
 61    -0.0261458029714417
 62    -0.0019515854597997
 63     0.0349616510426276
 64     0.0043441696736844
 65    -0.0038599157007516
 66     0.0037393566105037
 67     0.0004585720401153
 68     0.0027734102777893
 69    -0.0079013084387400
 70     0.0026202676899203
 71     0.0388225100488824
 72     0.0194005682580547
 73    -0.0008953584471859
 74    -0.0110300499794469
 75     0.0842808992155692
 76    -0.0138909628040851
 77    -0.0020746175091114
 78     0.0460865419674758
 79     0.0223654691543764
 80     0.0022068878604067
 81     0.0034594662099102
 82     0.0491141342339008
 83     0.0221534277319717
 84     0.0184545716813761
 85     0.0045184972924892
 86    -0.0370541621234080
 87    -0.0056215068065115
 88    -0.0032137307435841
 89    -0.0051091794627070
 90    -0.0363834379474838
 91    -0.0036924681395764
 92    -0.0202529120194547
 93    -0.0009441661256996
 94    -0.0002886216877971
 95    -0.0761337120523422
 96     0.0133674030660573
 97     0.0019262474954173
 98     0.0051612443447609
 99    -0.0902611479328484
 100    -0.0084119193055451
 101    -0.0001158344178651
 102     0.0117734722960217
 103    -0.0320611345326315
 104    -0.0136378954677021
 105    -0.0009375520982884
 106     0.0024277703633699
 107    -0.0386687030920306
 108     0.0133284275798888
 109     0.0011613793124791
 110     0.0025307826737667
 111     0.0373206922964567
 112     0.0126245438162457
 113    -0.0000535585080250
 114     0.0116797080963038
 115     0.0306335249512484
 116    -0.0144609021932303
 117    -0.0018315182530806
 118     0.0054966107600927
 119     0.0898409321109780
 120    -0.0078064612263211
 121     0.0010925953304806
 122    -0.0005858541150542
 123     0.0787126666758937
 124     0.0126460361338977
 125     0.0049468975218073
 126    -0.0379099790460025
 127     0.0050549724470315
 128    -0.0201076255732328
 129    -0.0045423054037666
 130    -0.0382206207773759
 131     0.0073527761634824
 132    -0.0028169024499081
 133    -0.0032450823382846
 134     0.0499022779277770
 135    -0.0217969469038552
 136     0.0184200267617098
 137     0.0022115754340230
 138     0.0463876799423580
 139    -0.0218699164902907
 140     0.0018080031482776
 141     0.0006874967312269
 142    -0.0113090577864971
 143    -0.0860843177148163
 144    -0.0145085171194712
 145     0.0086985263924372
 146     0.0039083051252374
 147    -0.0417225881963845
 148     0.0201794656480162
 149     0.1181622635939557
 150     0.0023389161675128
 151    -0.0070568024373679
 152     0.0042525738759469
 153    -0.0523611648224164
 154     0.0138508036817108
 155     0.0012820225059409
 156     0.0237233899030698
 157    -0.0122724927532015
 158    -0.0062433217112041
 159    -0.3958254795791949
 160    -0.0872624260161875
 161    -0.2033791705816262
 162     0.0535198369776350
 163    -0.0371621821151143
 164     0.0176998074765724
 165     0.0152643858058525
 166     0.0031091979771903
 167     0.0283041340121287
 168    -0.0558230079678925
 169     0.0003306759318910
 170     0.0027711783021161
 171    -0.1633042071511940
 172     0.0882481658701545
 173     0.0000036850207731
 174    -0.0202588805157139
 175    -0.0052439528067345
 176    -0.0097310233068237
 177    -0.3965564839005192
 178     0.0828635373426074
 179     0.2061894862407928
 180     0.0571036718553770
 181    -0.0351426345275599
 182    -0.0175826981251438
 183     0.0156183753113471
 184     0.0023920155715763
 Sym= 48A
 Ene= -0.112192
 Spin= Alpha
 Occup= 2.000000
  1    -0.0128555740392813
  2    -0.3889861277889027
  3     0.0343370163703272
  4     0.2005897981657375
  5     0.1216552035110764
  6    -0.0234212201048173
  7    -0.0157452391053453
  8     0.0136686990309362
  9     0.0039187699139984
 10     0.0507468118303714
 11    -0.0114827619742481
 12     0.0081617172155154
 13     0.0082092715261488
 14    -0.2521133972558134
 15     0.0581107986768390
 16    -0.0000115671638037
 17    -0.0134964746253780
 18    -0.0001628383903330
 19     0.0009078729642307
 20    -0.3808719958778521
 21    -0.0450968758110412
 22    -0.1989982072746383
 23     0.1418972521532217
 24    -0.0212458794311895
 25     0.0155273370050621
 26     0.0135281561673639
 27     0.0055209519930534
 28     0.1032926725438491
 29     0.0286454493497341
 30    -0.0174518308826130
 31    -0.0055507425672200
 32    -0.0433993840484151
 33     0.0323815657838243
 34     0.0005927188810581
 35     0.0077915676656170
 36     0.0027700480227056
 37    -0.0048310693395180
 38     0.0019484361279244
 39     0.0009198229350652
 40     0.0030560579745149
 41     0.0031294336321002
 42     0.0010648019417169
 43    -0.0117060643483104
 44    -0.0005157963906149
 45    -0.0030858080704334
 46     0.0000372964931666
 47     0.0095608442321447
 48     0.0015407988476517
 49    -0.0202156966667163
 50    -0.0023559202359750
 51    -0.0119896946986790
 52    -0.0002165001451346
 53    -0.0122752794095733
 54    -0.0003096886494898
 55    -0.0197669685974113
 56    -0.0022223579758073
 57     0.0072656643792372
 58     0.0012392072883372
 59    -0.0009803520316821
 60     0.0003115175007800
 61    -0.0095796068015486
 62    -0.0003715189430965
 63     0.0009445570855780
 64     0.0008008501454383
 65     0.0004166384886645
 66     0.0028007431748776
 67    -0.0039175349034856
 68     0.0019670455241032
 69     0.0152122934224603
 70    -0.0000989896675803
 71    -0.0544617530361069
 72    -0.0278574520038650
 73    -0.0039155009323099
 74    -0.0064474977928977
 75    -0.0234375743545520
 76     0.0247539901378092
 77     0.0088987828576362
 78     0.0058808963271631
 79     0.0056509421260667
 80    -0.0023135301563911
 81     0.0034385425087423
 82    -0.0102269420777270
 83     0.0085307714545224
 84     0.0059258136388297
 85    -0.0043648588460417
 86     0.0125586113217620
 87     0.0325988284014909
 88     0.0005563195147756
 89    -0.0044010062625071
 90     0.0300734899189345
 91     0.0184951824727676
 92    -0.0051378274747460
 93     0.0091530279767534
 94     0.0059931528201581
 95     0.0439041849176342
 96     0.0312314164761141
 97    -0.0015200544958119
 98     0.0033528088828452
 99    -0.0060985596013441
 100    -0.0296539085502240
 101    -0.0010508718199617
 102    -0.0020036167781342
 103    -0.0218304803683652
 104     0.0342635100882864
 105     0.0026721339092361
 106    -0.0054272098254845
 107    -0.0199822111540836
 108     0.0333479737961059
 109     0.0028488661515819
 110     0.0048408385722716
 111    -0.0215505435943735
 112    -0.0336518432261302
 113    -0.0010259909813110
 114     0.0012845032061830
 115    -0.0232517300601459
 116    -0.0338618749716852
 117    -0.0015287359728955
 118    -0.0032963440961663
 119    -0.0098679278958230
 120     0.0295675514541077
 121     0.0090584793047101
 122    -0.0071288082186633
 123     0.0403493303507697
 124    -0.0314081304196519
 125    -0.0045494541933290
 126    -0.0275759181788062
 127     0.0188289547864582
 128     0.0054038447831318
 129    -0.0041855123948240
 130    -0.0101992351234730
 131     0.0330181162415679
 132    -0.0004569419719643
 133     0.0036424095798617
 134     0.0075716872902818
 135     0.0089784086884546
 136    -0.0061440931707836
 137     0.0086456652647177
 138    -0.0086261547322064
 139     0.0064103346153376
 140     0.0023344380949139
 141    -0.0039759904793569
 142     0.0075941111580647
 143    -0.0197711966590192
 144    -0.0245301364492027
 145     0.0147279725155259
 146     0.0010915517488267
 147    -0.0526123019069907
 148     0.0273279788963709
 149    -0.1086535981827805
 150     0.0288579097169800
 151    -0.0041734997069728
 152    -0.0001848689038927
 153    -0.0414586529186375
 154     0.0319581764075194
 155     0.0002509389062654
 156     0.0067696328824131
 157    -0.0022378860648495
 158     0.0079981509855805
 159    -0.3704772268178674
 160     0.0426256214849312
 161    -0.1923006801576663
 162     0.1276606141245819
 163    -0.0208783294990550
 164     0.0149195788416235
 165     0.0130188398202897
 166    -0.0046472599458093
 167    -0.0523475515849771
 168    -0.0091044573918535
 169     0.0025027457701792
 170    -0.0030888370885427
 171    -0.2460995664928810
 172     0.0545781663681587
 173    -0.0001091000391919
 174    -0.0126559105213312
 175     0.0003380761699220
 176     0.0047125088199193
 177    -0.3677454566930005
 178    -0.0448311251083487
 179     0.1910968405075468
 180     0.1321467677022710
 181    -0.0207363391951891
 182    -0.0149355015593256
 183     0.0129704535095314
 184    -0.0050734499591878
 Sym= 49A
 Ene= -0.111636
 Spin= Alpha
 Occup= 2.000000
  1     0.1080244158101343
  2     0.0414592686283697
  3     0.1007103361249261
  4     0.0005833882722682
  5     0.1760003383456920
  6     0.0185892725121914
  7     0.0017929855566490
  8    -0.0005610130114075
  9     0.0121639988304208
 10     0.0147513037595136
 11     0.0058707890450830
 12    -0.1266063220235838
 13    -0.1158056488997894
 14    -0.0246486207322602
 15    -0.0016705749660890
 16     0.0025137162638409
 17     0.0003350483018840
 18    -0.0007078995439685
 19    -0.1111650153323662
 20    -0.0719593276832442
 21     0.0662252694762013
 22    -0.0154193109800417
 23    -0.1437984281633075
 24    -0.0169741923442426
 25     0.0027849614709544
 26     0.0017410387062233
 27    -0.0099715254656019
 28     0.0310694398810998
 29     0.0128026000958110
 30     0.2585016111439831
 31     0.0824604265112160
 32     0.0011489854349587
 33     0.0024831315286874
 34    -0.0198855973290676
 35    -0.0020438248328662
 36    -0.0004911428882229
 37     0.0099506068123702
 38     0.0014534651599710
 39    -0.0083285009129572
 40    -0.0011918149677120
 41    -0.0160551352933046
 42    -0.0014969038703290
 43     0.0136848785602634
 44     0.0003672404846960
 45     0.0135858157340945
 46     0.0013703477862881
 47    -0.0135617545786220
 48    -0.0012716062566349
 49    -0.0045075904006201
 50    -0.0001029107986947
 51     0.0029762187407753
 52     0.0000170566196341
 53     0.0044075106456912
 54     0.0006213967873771
 55    -0.0066447435111907
 56    -0.0008192189659567
 57     0.0096147434827766
 58     0.0012481746218564
 59    -0.0101018128317076
 60    -0.0012890225637200
 61    -0.0106777917684417
 62     0.0007400754882989
 63     0.0122471880713158
 64     0.0012075046182189
 65     0.0245296687391394
 66     0.0029922039542470
 67    -0.0251339145843315
 68    -0.0030969043378570
 69     0.0009230484361869
 70    -0.0070237737652129
 71     0.0001134658724534
 72    -0.0018919850197286
 73    -0.0008540378919523
 74    -0.0155804681870046
 75     0.0054407585579969
 76     0.0018193383358136
 77     0.0002279164246147
 78     0.0164715950869879
 79    -0.0043072296551831
 80     0.0021508562376761
 81    -0.0001239044834336
 82     0.0126184475376029
 83    -0.0061186637987849
 84     0.0012223533318437
 85    -0.0010950577008350
 86    -0.0136618172650838
 87     0.0092459092712458
 88    -0.0036715767196600
 89     0.0006556515386096
 90    -0.0125230397974898
 91     0.0070662487104948
 92     0.0005799691483430
 93     0.0000252990414821
 94     0.0173966717399522
 95    -0.0051184056450717
 96     0.0036102596111320
 97     0.0002478097638221
 98     0.0017176447988318
 99    -0.0025290753616641
 100    -0.0030627417050891
 101    -0.0010077707523595
 102    -0.0000321176231052
 103     0.0001487148863580
 104     0.0042377301402022
 105     0.0006782919876032
 106    -0.0011990259772394
 107    -0.0002511130109990
 108    -0.0002337095101812
 109    -0.0017588422456653
 110     0.0093168541773320
 111     0.0020498788819178
 112    -0.0052971616887400
 113     0.0024289398464462
 114     0.0099577011686287
 115     0.0012196194218131
 116     0.0010354953140915
 117    -0.0002945914031852
 118    -0.0101930703748611
 119     0.0035057275001760
 120     0.0008388741657752
 121     0.0013854974199490
 122     0.0164189318180371
 123     0.0027893289293206
 124    -0.0005050308248338
 125    -0.0008147642701059
 126    -0.0107182418201674
 127    -0.0097046764494912
 128     0.0036715833496559
 129     0.0003518735192197
 130    -0.0097439696639512
 131    -0.0117018151443232
 132    -0.0055383009304468
 133    -0.0013351576304479
 134     0.0068296661131346
 135     0.0021371263483244
 136    -0.0035142626905006
 137     0.0031253878739812
 138     0.0114268480678757
 139    -0.0016679980528217
 140     0.0049299744769502
 141     0.0007461937967972
 142    -0.0069898966519400
 143    -0.0026236775669991
 144     0.0012628809547601
 145    -0.0007298030404622
 146    -0.0204630825897939
 147    -0.0005243092721540
 148    -0.0016444079107903
 149     0.0238484109560835
 150    -0.0103186582028797
 151    -0.5100095001099921
 152     0.1544023691396172
 153    -0.0018595141639236
 154    -0.0015743108488867
 155    -0.0410108556221827
 156     0.0018107057435977
 157    -0.0005396758461095
 158     0.2173119540424419
 159    -0.1016068311473349
 160    -0.1780523146048879
 161    -0.0107006358483779
 162    -0.3303653762162319
 163    -0.0347624829501988
 164     0.0040607881513082
 165     0.0019577305258607
 166     0.0225907796780846
 167     0.0116385151689419
 168    -0.0046042645432636
 169     0.2568552047483264
 170    -0.2355492633580086
 171     0.0187647662050782
 172     0.0012875987578391
 173     0.0045493921801003
 174    -0.0004049278469610
 175    -0.0005004702550309
 176    -0.2194284879436807
 177     0.1263452626103248
 178    -0.1505249818794590
 179    -0.0229394969879004
 180     0.3041411813513842
 181     0.0338098065139487
 182     0.0049202186514909
 183    -0.0028738592098949
 184    -0.0210028668203586
 Sym= 50A
 Ene= -0.111575
 Spin= Alpha
 Occup= 2.000000
  1     0.2178931137292649
  2     0.0990401117864019
  3     0.1743457972178505
  4    -0.0093446308218470
  5     0.3291015594968971
  6     0.0338623879729518
  7     0.0039533418077507
  8    -0.0018912613435488
  9     0.0222487679781678
 10     0.0113426453362626
 11     0.0025302577626909
 12    -0.2611171315342506
 13    -0.2381999591894136
 14    -0.0182869326852931
 15     0.0003313419430240
 16     0.0042010736805625
 17     0.0001648623592020
 18    -0.0002862661175065
 19    -0.2210236490176260
 20    -0.1301334576691508
 21     0.1528277392870099
 22    -0.0263534829385288
 23    -0.3053822057583563
 24    -0.0336775369286799
 25     0.0050036798968958
 26     0.0030151780746658
 27    -0.0210978378711823
 28     0.0202939705482816
 29     0.0067483027984622
 30     0.5081892528514714
 31     0.1475954737829616
 32    -0.0000129924257484
 33     0.0016350109639285
 34    -0.0421887671252563
 35    -0.0012360134032914
 36    -0.0004754076057642
 37     0.0300971875573628
 38     0.0033695284944049
 39    -0.0289956879309694
 40    -0.0033017961111247
 41     0.0014455777392669
 42     0.0000000388294408
 43    -0.0009379363850404
 44    -0.0018248278574424
 45    -0.0010256943118344
 46     0.0003586393661951
 47     0.0033252614250058
 48    -0.0002003685873059
 49     0.0154906370482305
 50     0.0013155000038868
 51    -0.0126022016679025
 52    -0.0011421459496047
 53    -0.0120644536314760
 54    -0.0009396777467066
 55     0.0152489710938167
 56     0.0011941676199448
 57     0.0094518476557788
 58     0.0004456380907054
 59    -0.0089472757396837
 60    -0.0004823291238089
 61    -0.0089944878750175
 62    -0.0016809247488425
 63     0.0094789517330848
 64     0.0007752353879705
 65    -0.0185676019092965
 66    -0.0019817277625727
 67     0.0181062131476520
 68     0.0018432089561744
 69     0.0003735837417950
 70    -0.0251276889362194
 71    -0.0007834573973835
 72    -0.0035028205606807
 73    -0.0005710387050586
 74     0.0090416727050443
 75    -0.0046597426076350
 76     0.0028984064989461
 77    -0.0050192095735489
 78    -0.0027317066483392
 79     0.0081521099533469
 80     0.0048374533077448
 81     0.0027428372746861
 82    -0.0070920649189708
 83     0.0045274442367865
 84    -0.0082393020504216
 85     0.0004042716600338
 86     0.0021810810264110
 87     0.0087392961365808
 88    -0.0037491833883427
 89     0.0001770155882263
 90     0.0004290216963892
 91     0.0070245234555259
 92     0.0062532693326204
 93    -0.0016336593456153
 94     0.0046277737230805
 95     0.0044166261362779
 96    -0.0036458537614648
 97    -0.0001463958698728
 98    -0.0193669698533655
 99    -0.0012907943777979
 100     0.0037981700093214
 101    -0.0026407393095706
 102     0.0164014841171534
 103    -0.0024058027615370
 104    -0.0009315901527345
 105     0.0022638042253489
 106     0.0171711396080211
 107    -0.0028880193424053
 108    -0.0059581116606964
 109     0.0012706020376041
 110    -0.0141091736982555
 111    -0.0033394307632259
 112     0.0037870979339776
 113    -0.0016478413325965
 114    -0.0138293637605883
 115    -0.0027866662055055
 116     0.0031483634565195
 117    -0.0000025336036353
 118     0.0164097280644964
 119    -0.0019734909228698
 120    -0.0031212873960802
 121    -0.0012328354660322
 122     0.0068526663053341
 123     0.0049413705951438
 124     0.0032966416605978
 125    -0.0004573729604908
 126    -0.0073604774126370
 127     0.0012378388864609
 128    -0.0030729146551918
 129     0.0010781218020120
 130    -0.0090511142997388
 131     0.0013948271257764
 132     0.0020391868152209
 133     0.0025159970745699
 134     0.0121502681897578
 135     0.0080133741261836
 136     0.0058199787532922
 137    -0.0040681689968723
 138     0.0109961039659993
 139     0.0098943293297547
 140    -0.0038115218842221
 141    -0.0000873482141395
 142    -0.0165090748345220
 143    -0.0049774751303545
 144    -0.0002152191198093
 145     0.0000649991660891
 146     0.0160337112576352
 147     0.0000408009776143
 148     0.0004542072064683
 149     0.0009840638048803
 150    -0.0006210713012748
 151     0.2556415772787355
 152    -0.0699285137877741
 153     0.0004526381048360
 154    -0.0004074062594928
 155     0.0221354146550422
 156    -0.0000531653241813
 157     0.0003000234675459
 158    -0.1115598793723078
 159     0.0562915786604937
 160     0.0818035640745422
 161     0.0091175204774267
 162     0.1610862381189098
 163     0.0162339916110368
 164    -0.0021129045712848
 165    -0.0012597602184662
 166    -0.0107614477971236
 167    -0.0000663603192170
 168    -0.0004612890887756
 169    -0.1350379508644952
 170     0.1234163528114950
 171    -0.0001029531317455
 172     0.0005494507790326
 173    -0.0018976183483685
 174     0.0000698430795000
 175    -0.0000925730657040
 176     0.1114629773513294
 177    -0.0610972577772464
 178     0.0823770698687427
 179     0.0110650065471297
 180    -0.1598715051675364
 181    -0.0169299214237980
 182    -0.0023673764408406
 183     0.0013520210014657
 184     0.0110045477831416
 Sym= 51A
 Ene= -0.109552
 Spin= Alpha
 Occup= 2.000000
  1     0.0014791516961704
  2     0.1217177273876175
  3     0.2055116002851439
  4    -0.0662640927342986
  5     0.1073144684101760
  6     0.0286741935890055
  7     0.0029387597924544
  8     0.0001472189407097
  9     0.0090339111789674
 10     0.1713461732996092
 11     0.1101878634871465
 12     0.0002152226227260
 13     0.0004639060594692
 14    -0.1605852497297341
 15    -0.0762165878062231
 16    -0.0007063641890713
 17     0.0179549820345092
 18    -0.0073384396105537
 19     0.0075170466736356
 20     0.1239008775404372
 21    -0.2108441628821316
 22     0.0647152875058474
 23     0.1174993747065753
 24     0.0304226272228426
 25    -0.0031763999176817
 26     0.0001430683253568
 27     0.0094371173226196
 28     0.2826493753151869
 29     0.2972705760705038
 30    -0.0071481176233672
 31    -0.0053754985923832
 32     0.0794869049432210
 33    -0.0213219199024568
 34     0.0011195933125147
 35    -0.0407843389600102
 36    -0.0187095502193179
 37     0.0510102907226626
 38     0.0015264263079954
 39     0.0322576619797343
 40    -0.0014335652740908
 41    -0.0230725804749723
 42    -0.0046891333675303
 43     0.0023429106946220
 44    -0.0013901072679938
 45     0.0089610825693492
 46     0.0019471290525089
 47    -0.0110823093120026
 48    -0.0007368074573671
 49    -0.0041924665104685
 50     0.0015090763033398
 51    -0.0357472296151461
 52    -0.0042631505211839
 53    -0.0387589193827262
 54    -0.0049821392709709
 55    -0.0064451678230813
 56     0.0010742919353427
 57    -0.0050101849617037
 58    -0.0003494721267928
 59     0.0207013334746212
 60     0.0030789170899914
 61     0.0130066557092342
 62    -0.0006252455016464
 63    -0.0174580741025924
 64    -0.0045008362771482
 65     0.0372626294193400
 66    -0.0015514724461160
 67     0.0565415129388277
 68     0.0014812632726892
 69    -0.0163795996454209
 70    -0.0018163532097051
 71     0.1210400045953461
 72    -0.0057388522360119
 73    -0.0086907096616879
 74     0.0178248815873783
 75     0.0498921613412383
 76     0.0225138630493864
 77     0.0013595243077387
 78     0.0115498889856302
 79    -0.0113046210447387
 80     0.0250085852726779
 81     0.0132490104306339
 82    -0.0095224222757789
 83    -0.0103105545394691
 84     0.0037930646038769
 85    -0.0063373566689243
 86    -0.0536638123944223
 87    -0.0446014969554006
 88    -0.0183489304590702
 89    -0.0041231905604246
 90    -0.0306637209678010
 91    -0.0608650883529129
 92    -0.0005751634740592
 93     0.0111566319509584
 94    -0.0124059427971472
 95    -0.0808198195555146
 96     0.0577389935588809
 97     0.0011202002375025
 98    -0.0182365999846673
 99     0.0172376855036497
 100    -0.0502076112073539
 101     0.0031338707173304
 102     0.0224322105787448
 103     0.0523244264391993
 104     0.0445833861587899
 105    -0.0027562961664929
 106     0.0116965872419631
 107     0.0506721103336599
 108     0.0437877777284600
 109    -0.0003972422691085
 110    -0.0180954166916355
 111     0.0517299661673585
 112    -0.0447776792629275
 113     0.0053115764009400
 114    -0.0172667095894278
 115     0.0473218109548097
 116    -0.0450546386460399
 117    -0.0030347608004989
 118     0.0182089208962571
 119     0.0125110691710056
 120     0.0329916098914051
 121     0.0117397619901316
 122     0.0109330796355210
 123    -0.0857447812603558
 124    -0.0434051272656630
 125    -0.0048227580456466
 126     0.0341874704753678
 127    -0.0601578299930902
 128    -0.0168005711983367
 129    -0.0070171822742768
 130     0.0553937217049037
 131    -0.0415605782825280
 132     0.0001031801633022
 133     0.0128281487119517
 134     0.0077867024998240
 135    -0.0096002236309638
 136     0.0131165691927081
 137     0.0009655080993733
 138    -0.0176031306894937
 139    -0.0108544244155264
 140    -0.0065685024708437
 141    -0.0086868344272942
 142    -0.0158272176235862
 143     0.0556771921180107
 144    -0.0405387076672045
 145    -0.0228057409289370
 146     0.0006380907007893
 147     0.1216116344218852
 148     0.0246681534553064
 149    -0.3237638998509313
 150     0.3046157348076406
 151    -0.0016241569412461
 152     0.0057342793046995
 153     0.0747798843546013
 154    -0.0165419646759033
 155    -0.0011956978605250
 156    -0.0441970255027894
 157     0.0211902265544388
 158     0.0020647555620420
 159     0.1144886828517914
 160     0.2345264163825476
 161     0.0567000937351883
 162     0.1283279025375683
 163     0.0318011077328751
 164    -0.0029793843610150
 165     0.0006320258540242
 166    -0.0105006022487092
 167    -0.1976839993065726
 168     0.1141013824292006
 169    -0.0029228250601264
 170     0.0016248173433685
 171    -0.1851228854832363
 172    -0.0771646906353041
 173     0.0006838082583726
 174     0.0190524408855237
 175     0.0069751107971976
 176     0.0012028614694715
 177     0.1145429133864596
 178    -0.2365520194875194
 179    -0.0550976348050352
 180     0.1327385014341703
 181     0.0329292702402189
 182     0.0031449768402515
 183     0.0005951783479142
 184    -0.0104598511542613
 Sym= 52A
 Ene= -0.109424
 Spin= Alpha
 Occup= 2.000000
  1    -0.0642937665681281
  2    -0.0475639353044664
  3     0.2213614380823226
  4     0.0596065877491219
  5     0.1258468497477302
  6     0.0227583985295002
  7     0.0001292445878460
  8     0.0030572918150356
  9     0.0096969348066804
 10     0.2077288101483443
 11     0.0451178262527445
 12     0.0297577772936807
 13     0.0157874234845770
 14    -0.2015422208423426
 15    -0.0201771140721473
 16    -0.0001600990746802
 17     0.0101710050811243
 18     0.0002834510549384
 19    -0.0258956615685539
 20    -0.0333982255463573
 21    -0.2390913123825093
 22    -0.0554596819516488
 23     0.1669273928247140
 24     0.0261087845427121
 25    -0.0009307684882324
 26     0.0028734536877201
 27     0.0115402375937190
 28     0.3402592714316811
 29     0.0871767976666114
 30    -0.0273322963487627
 31     0.0069330604084786
 32    -0.0232296168873464
 33     0.0313774887078225
 34     0.0087453851161542
 35    -0.0312012536053177
 36    -0.0208353607111184
 37     0.0373733017526870
 38    -0.0006601182499124
 39     0.0417723832808831
 40    -0.0010112900769887
 41     0.0212817621195572
 42    -0.0006958223976220
 43     0.0876019683666610
 44     0.0067491715925604
 45     0.0958409701957297
 46     0.0097173125068821
 47     0.0243641285614449
 48     0.0004964970721968
 49    -0.0132014449401898
 50    -0.0020322702680908
 51    -0.0246553740895757
 52    -0.0058497931791401
 53     0.0195790116635934
 54     0.0052454672224157
 55     0.0122751649331267
 56     0.0022015511624413
 57    -0.0260583107817967
 58    -0.0006161031760514
 59    -0.0941561344005943
 60    -0.0093963823367252
 61    -0.0865647585069940
 62    -0.0068528355227907
 63    -0.0244149197558150
 64     0.0000557765586886
 65    -0.0371534254193551
 66     0.0008378372104547
 67    -0.0304554576502740
 68     0.0008526576013875
 69    -0.0461399556637767
 70     0.0073571615898957
 71     0.0180591385729408
 72    -0.1277496481609946
 73    -0.0017452840320350
 74    -0.0243976298480935
 75     0.0654800135957416
 76     0.1251621836797912
 77    -0.0020392399046172
 78     0.0622144458043681
 79     0.0056618860097721
 80    -0.1252255457597216
 81    -0.0014228294533527
 82     0.0303814873984273
 83     0.0062597767820007
 84    -0.1121444096451739
 85    -0.0050721491708471
 86    -0.0321219377428251
 87     0.0230280031775251
 88     0.1222463618538629
 89    -0.0054914180938549
 90    -0.0426846389065358
 91     0.0045768508191159
 92     0.1157791583000906
 93     0.0046141944649336
 94     0.0177637522818517
 95    -0.0604356532379888
 96    -0.0901096101950773
 97    -0.0280111254347808
 98    -0.0018020888225140
 99    -0.0552836796681484
 100     0.1123822234134744
 101     0.0141906202419896
 102    -0.0279243981324890
 103    -0.0387325367488542
 104     0.0042589204490706
 105     0.0164356061670958
 106     0.0486938047851959
 107     0.0000843842665659
 108     0.0112310616820989
 109    -0.0165753396243094
 110     0.0469291276545835
 111     0.0067800064853269
 112     0.0049019583280835
 113    -0.0136706653663260
 114    -0.0306237825665895
 115     0.0456213111191545
 116    -0.0022224279225350
 117     0.0282025069826325
 118     0.0007252472491044
 119     0.0575390507611186
 120     0.1185791844934761
 121    -0.0030022559221806
 122     0.0189963047508154
 123     0.0490382788984592
 124    -0.0976350580046049
 125     0.0049307069060630
 126    -0.0379747106790150
 127    -0.0125460568477701
 128     0.1154941743870732
 129     0.0040204348097619
 130    -0.0243966294080391
 131    -0.0288859729146359
 132     0.1243683586631611
 133     0.0032535407223159
 134     0.0309601927871582
 135    -0.0076599396393533
 136    -0.1123228996310645
 137     0.0024309750075554
 138     0.0600628666787252
 139    -0.0072716679325315
 140    -0.1281842008079159
 141     0.0003638890860737
 142    -0.0262811580294668
 143    -0.0583407656576310
 144     0.1216343035962482
 145     0.0437274691158101
 146     0.0071973407323861
 147    -0.0013868445541807
 148    -0.1264066118635692
 149     0.3000374360600193
 150    -0.0461785096852617
 151     0.0225701745364797
 152     0.0096543624302550
 153     0.0339109061927321
 154    -0.0341548131353278
 155     0.0080837990293103
 156     0.0255713385047421
 157    -0.0183257935706478
 158    -0.0624793700160825
 159     0.0625423780662936
 160    -0.1939280887535367
 161     0.0683124902593169
 162    -0.1127712211304319
 163    -0.0193001266411148
 164    -0.0001745234820557
 165    -0.0030082449936602
 166     0.0085558208531958
 167     0.1836304581244063
 168    -0.0298464180324859
 169    -0.0281426927153272
 170     0.0156309977448440
 171     0.1776024724479808
 172     0.0097589149917846
 173     0.0000138909732712
 174    -0.0077459485499425
 175     0.0013343291517780
 176    -0.0286266059630455
 177     0.0493818553357133
 178     0.2081563466484094
 179    -0.0631211028786793
 180    -0.1478407746204487
 181    -0.0214512427264159
 182    -0.0004704469112787
 183    -0.0027816092355582
 184     0.0100511646798318
 Sym= 53A
 Ene= -0.105325
 Spin= Alpha
 Occup= 2.000000
  1     0.0707793061184377
  2     0.0790097071828821
  3     0.0360903359600118
  4    -0.0580838015738035
  5     0.0185465846328426
  6     0.0032927906497058
  7    -0.0007149005490891
  8     0.0025237525862129
  9     0.0005311458147835
 10     0.0724770044037489
 11     0.0537354023038716
 12    -0.1221369135258489
 13    -0.0453153159301506
 14    -0.0642014837160575
 15    -0.0276816844139523
 16    -0.0051979821718349
 17     0.0084355853284333
 18     0.0016491486317003
 19    -0.0039565932970568
 20     0.0628160565898223
 21    -0.0646330384794149
 22     0.0156466592489140
 23     0.0396554090424723
 24     0.0204950725124202
 25    -0.0001022842463950
 26     0.0025805823858543
 27     0.0004838428144472
 28     0.0407301961885669
 29     0.2156518937472882
 30    -0.0083853110379200
 31    -0.1191166475389570
 32     0.0448865689442598
 33    -0.0248771212846033
 34    -0.0149032197426853
 35    -0.0144143702650938
 36    -0.0098376487390334
 37     0.0856695428819118
 38     0.0029590296543982
 39    -0.0149763937030013
 40    -0.0019550056930748
 41     0.1667545254078132
 42     0.0143807956363262
 43    -0.1551941777703877
 44    -0.0167951421982591
 45    -0.1595656731148553
 46    -0.0176484129311571
 47     0.1754899089518454
 48     0.0190737163895153
 49    -0.0173563076529589
 50    -0.0066165851399831
 51     0.0103572871121609
 52     0.0052181041788970
 53    -0.0147183017279761
 54    -0.0056993115228680
 55     0.0200709936546905
 56     0.0069664451428399
 57    -0.1761176563709962
 58    -0.0192128400940162
 59     0.1601622009366802
 60     0.0178556802933246
 61     0.1549365032136435
 62     0.0167468118069233
 63    -0.1673303071809059
 64    -0.0144996604293962
 65     0.0152747634170696
 66     0.0018871628233161
 67    -0.0851645635685412
 68    -0.0029398706856076
 69    -0.0175966162438216
 70    -0.0368524030096893
 71     0.0849274212854848
 72    -0.0172521087573899
 73    -0.0041882757995273
 74     0.2084229219961131
 75    -0.0791799025504091
 76     0.0285038856035654
 77    -0.0205304809708702
 78    -0.1837981362718853
 79     0.0490148673580602
 80     0.0133724168299701
 81     0.0218929929238184
 82    -0.1905587861128836
 83     0.0508873271715125
 84    -0.0471083885672590
 85     0.0150944616493725
 86     0.1531884260716975
 87    -0.1012058771379370
 88     0.0203452954589160
 89    -0.0184371785100374
 90     0.1528303701811726
 91    -0.1079026269174232
 92     0.0192525775680427
 93     0.0006510759975029
 94    -0.1857323219184400
 95     0.0694558036188788
 96    -0.0103004322487815
 97    -0.0021184930680445
 98     0.0328234524923363
 99     0.0623041171845331
 100     0.0079437220395417
 101     0.0139152633030457
 102    -0.0551869296702781
 103     0.0116341074110257
 104    -0.0108636035259313
 105    -0.0132744008903158
 106    -0.0451172936869773
 107     0.0297768553249285
 108     0.0151324910661674
 109     0.0135799664513785
 110    -0.0491161008863906
 111    -0.0288074659169506
 112     0.0137974408013058
 113    -0.0141707337129565
 114    -0.0593231154434740
 115    -0.0106413202644216
 116    -0.0128571275534618
 117     0.0021789212054351
 118     0.0371511849549989
 119    -0.0625398344391016
 120     0.0096888797691173
 121    -0.0001939886801568
 122    -0.1858754085437951
 123    -0.0709128959349755
 124    -0.0120615551963860
 125     0.0187069707527118
 126     0.1538203820995320
 127     0.1074258516918411
 128     0.0195145435435304
 129    -0.0154698532700720
 130     0.1550120500114470
 131     0.1012716538231377
 132     0.0207861455497916
 133    -0.0214870476605307
 134    -0.1907368776843027
 135    -0.0500584674689767
 136    -0.0474499861600776
 137     0.0203671995057672
 138    -0.1843298313772509
 139    -0.0482862194236015
 140     0.0130129674911345
 141     0.0044142817711928
 142     0.2082274612121461
 143     0.0802936405934511
 144     0.0282013266837530
 145     0.0175627379952101
 146    -0.0362368541568484
 147    -0.0836781755288970
 148    -0.0176510672250491
 149     0.0400326422620496
 150    -0.2110201420748913
 151     0.0073635771141631
 152    -0.1232473104309493
 153    -0.0441808439625936
 154     0.0241029523405077
 155    -0.0150465802214867
 156     0.0139818976033109
 157    -0.0095010295423202
 158     0.0715511117940545
 159    -0.0777129100746979
 160    -0.0349451848485903
 161    -0.0571706301047171
 162    -0.0188200344608163
 163    -0.0027842156221421
 164    -0.0006921464665854
 165    -0.0025116087980914
 166     0.0005085322688339
 167     0.0726997833007957
 168    -0.0517616777479455
 169     0.1263158878164664
 170    -0.0468478847899953
 171     0.0615493530078188
 172     0.0267748192269298
 173    -0.0052353608368887
 174    -0.0083118873892012
 175     0.0017831908166682
 176    -0.0068101300727551
 177    -0.0605921643521126
 178     0.0636283814222982
 179     0.0136427421180796
 180    -0.0397584157822599
 181    -0.0204243883402583
 182    -0.0001555074812546
 183    -0.0025308338214077
 184     0.0003805080145161
 Sym= 54A
 Ene= -0.102492
 Spin= Alpha
 Occup= 2.000000
  1    -0.1049268075829078
  2     0.0348270624949090
  3     0.0513615032039450
  4     0.1145569993144235
  5     0.1725698034862226
  6    -0.0028451288416854
  7     0.0009429875253621
  8     0.0006077710264321
  9    -0.0022551667176551
 10     0.1612247436554786
 11    -0.1526704735960011
 12     0.0312464496255003
 13     0.0056595894106637
 14     0.1790568059791769
 15     0.0010537471382783
 16    -0.0003711155236337
 17     0.0014696756619202
 18    -0.0000161042712343
 19    -0.0783096054305359
 20     0.0371911208344760
 21    -0.0464398646907500
 22    -0.1071428426441235
 23     0.1701241771225395
 24    -0.0053685017795858
 25    -0.0009124507426294
 26     0.0006059635606035
 27    -0.0021463027232981
 28     0.0319173118112349
 29    -0.0081476628209103
 30     0.0025301816621050
 31     0.0191171314810222
 32    -0.0258317773195277
 33     0.0321880059054654
 34     0.0049374334472969
 35    -0.0141085749599543
 36    -0.0101284875339705
 37     0.0229372264545389
 38    -0.0024503174282402
 39     0.0132789855019732
 40    -0.0032881124068325
 41     0.0694032750923442
 42     0.0053016410687308
 43     0.0726289695237438
 44     0.0065647028498636
 45     0.0498579439613558
 46     0.0008550314260635
 47     0.0447636761203846
 48    -0.0001480533276588
 49     0.0937279436943837
 50     0.0062442729043133
 51     0.0868204807019868
 52     0.0050458220318963
 53     0.0868460259733213
 54     0.0050335151057584
 55     0.0938915834220792
 56     0.0062992723437890
 57     0.0437028465531572
 58    -0.0002653259514516
 59     0.0498664458593385
 60     0.0008759490583830
 61     0.0723311131768683
 62     0.0065519713385391
 63     0.0681374350127465
 64     0.0052152463415044
 65     0.0126863070050802
 66    -0.0033533336130640
 67     0.0218955078924826
 68    -0.0025603138285573
 69    -0.0511815408906501
 70    -0.0002351766364936
 71     0.0116182703197538
 72    -0.0786634794403581
 73    -0.0015519152464544
 74     0.0030201775902948
 75     0.0126927973044220
 76     0.0660883727074616
 77    -0.0218094113995116
 78    -0.0091412470275489
 79    -0.0092081027918724
 80    -0.1289359530740994
 81    -0.0184577161956808
 82     0.0130444425717146
 83     0.0041386596891876
 84    -0.1302578600854423
 85     0.0027953345282749
 86     0.0328791672153150
 87    -0.0255402445589914
 88     0.1240688190362225
 89     0.0030874954848569
 90    -0.0443090950353344
 91     0.0315303639473969
 92     0.1212888707656739
 93    -0.0479571008887519
 94    -0.0017934753629967
 95    -0.0249424875356698
 96    -0.2343100474178074
 97    -0.0320050778834728
 98    -0.0018118471621572
 99     0.0032466112367595
 100     0.2241743424399402
 101    -0.0107780535158458
 102    -0.0244749280825071
 103    -0.0015559509037273
 104    -0.1931609118329670
 105    -0.0112013560281483
 106     0.0274681305299839
 107    -0.0041577634390770
 108    -0.1941541622819609
 109    -0.0116189332617424
 110    -0.0272571088902213
 111    -0.0053229037257639
 112     0.1939681862256547
 113    -0.0112504254923540
 114     0.0238383093545306
 115    -0.0017541588663607
 116     0.1933618225359998
 117    -0.0317053385934985
 118     0.0018255375560296
 119     0.0008565711542796
 120    -0.2226100829125396
 121    -0.0478599055848071
 122     0.0019720168481912
 123    -0.0257103184345622
 124     0.2327378558333509
 125     0.0031535002211077
 126     0.0442128004469703
 127     0.0317807916560967
 128    -0.1199562433396359
 129     0.0030143924894302
 130    -0.0325110327928736
 131    -0.0251698858919468
 132    -0.1228618416650925
 133    -0.0185777183493977
 134    -0.0138774635026959
 135     0.0048505296315685
 136     0.1288407184209749
 137    -0.0217669657257196
 138     0.0083439701646268
 139    -0.0084677069823214
 140     0.1278419180455723
 141    -0.0012723082219876
 142    -0.0028542232554814
 143     0.0140310456369521
 144    -0.0646731068617280
 145    -0.0508028936272507
 146     0.0001733784305210
 147     0.0105366238932720
 148     0.0771533229696859
 149    -0.0311367538470797
 150    -0.0098633857545115
 151     0.0030422178027339
 152    -0.0194079132374281
 153    -0.0255439240067630
 154     0.0331185472532510
 155    -0.0046871732272239
 156    -0.0141421765044432
 157     0.0101634707003612
 158     0.1067642500293624
 159     0.0360131481316753
 160     0.0492195934600387
 161    -0.1193336196896166
 162     0.1801728175694540
 163    -0.0034139869952892
 164    -0.0009944929312867
 165     0.0005455011236918
 166     0.0024567403442539
 167    -0.1644555764035031
 168    -0.1604958502530489
 169     0.0308620686418726
 170    -0.0057696316688715
 171     0.1891033237589157
 172     0.0007724987670388
 173     0.0003109972612538
 174     0.0013143788208399
 175     0.0004019761409159
 176     0.0815590834947874
 177     0.0382595942098594
 178    -0.0436439554129799
 179     0.1117006000731015
 180     0.1765535120790508
 181    -0.0061526107588728
 182     0.0009272751543767
 183     0.0005382563762627
 184     0.0023591242947205
 Sym= 55A
 Ene= -0.101876
 Spin= Alpha
 Occup= 2.000000
  1     0.0501123684628648
  2    -0.0885593143102997
  3     0.0927232312909184
  4    -0.1677339847436785
  5    -0.2882163166019213
  6     0.0152049858985517
  7    -0.0014874849120321
  8    -0.0003662698760407
  9     0.0068938510353331
 10    -0.1579740023971362
 11     0.2541056602191296
 12     0.0008212787006225
 13    -0.0001498782652808
 14    -0.3218150483874050
 15     0.0216200131636522
 16    -0.0000333555762464
 17     0.0022049042401148
 18     0.0096635481432933
 19     0.0504112290964525
 20    -0.0883662808518861
 21    -0.0919558023700426
 22     0.1671581680678362
 23    -0.2875104780641536
 24     0.0151725274864978
 25     0.0014636548114666
 26    -0.0003776246475116
 27     0.0068773153567016
 28     0.0031681465683644
 29    -0.0645341137252622
 30     0.0003927133256873
 31     0.0006323261561814
 32    -0.0131561895883502
 33    -0.0366549934404792
 34     0.0003317237377398
 35     0.0035759873549312
 36     0.0007280908924706
 37     0.0038684026116286
 38     0.0018359534199974
 39     0.0038695253924431
 40     0.0016920328305530
 41     0.0005306585110926
 42    -0.0001934821371139
 43     0.0049541496171616
 44     0.0000529125050783
 45     0.0059146033270664
 46     0.0006649984129586
 47     0.0024073574380030
 48     0.0003192132216007
 49    -0.0055977145048946
 50    -0.0006559355017752
 51    -0.0050649808783075
 52    -0.0006413676074376
 53    -0.0019077275443303
 54     0.0002608022198673
 55    -0.0024448547774451
 56     0.0001202918565442
 57    -0.0064756347652810
 58    -0.0003177626384626
 59    -0.0105085348088240
 60    -0.0007804036284620
 61    -0.0113935370815381
 62    -0.0005985018311493
 63    -0.0064912628818543
 64    -0.0002240175548358
 65    -0.0050800528495886
 66    -0.0015490498629115
 67    -0.0065471719714899
 68    -0.0019272592988353
 69     0.0049810222335010
 70    -0.0003887445701901
 71    -0.0055761283749493
 72    -0.0159829347644842
 73    -0.0015094232880892
 74    -0.0032519526964347
 75    -0.0012874983344144
 76     0.0133132028246810
 77     0.0017048789400154
 78     0.0042935736141876
 79    -0.0026005756052576
 80    -0.0065308903334938
 81     0.0014792010286931
 82    -0.0006270358067592
 83    -0.0017474233099750
 84    -0.0072227819111821
 85    -0.0016519642592815
 86    -0.0028755942600514
 87     0.0041053622513103
 88     0.0062733422934871
 89    -0.0010562500132633
 90    -0.0002339450980263
 91     0.0003217606560958
 92     0.0078006021908307
 93     0.0024247897389520
 94     0.0034993343000269
 95     0.0012337108905116
 96     0.0012264192606162
 97    -0.0014529436963204
 98    -0.0005389804118714
 99     0.0017319721902660
 100     0.0009257033789574
 101     0.0014064218411612
 102    -0.0018090146059359
 103    -0.0020754999534193
 104     0.0093318392246744
 105     0.0020084300715996
 106     0.0029388780310991
 107     0.0037708837976350
 108     0.0077099477832687
 109    -0.0010673818646355
 110     0.0055954777758342
 111    -0.0034412046664829
 112    -0.0084759523482069
 113    -0.0004091021670961
 114    -0.0036286289738651
 115     0.0022006105376596
 116    -0.0067261762799092
 117     0.0043599336818523
 118    -0.0010145026052419
 119    -0.0018859483888157
 120     0.0198387747489434
 121     0.0015317675976107
 122     0.0034640361564223
 123     0.0009424285173190
 124    -0.0184578595608080
 125     0.0009868302655361
 126    -0.0039071726445422
 127    -0.0030514752695046
 128     0.0187283792047467
 129     0.0015581500472665
 130    -0.0003097531921923
 131    -0.0021320956447783
 132     0.0171821439143294
 133    -0.0001935563226644
 134     0.0002519966000324
 135     0.0012340324575793
 136    -0.0189614746768869
 137     0.0000662642347929
 138     0.0037777818976782
 139     0.0034707337648942
 140    -0.0178346642280089
 141     0.0018583636807649
 142    -0.0029134373225331
 143     0.0001985648222978
 144     0.0202046861207824
 145    -0.0014096099067599
 146    -0.0010584552472281
 147     0.0051476043987270
 148    -0.0242546223498352
 149     0.0054652692756931
 150     0.0740684290531144
 151    -0.0009193569861808
 152     0.0037073800524858
 153     0.0168198427009493
 154     0.0388228632679580
 155     0.0007258372743148
 156    -0.0027772202736701
 157    -0.0000741200344557
 158     0.0460416326638367
 159     0.0969826294374771
 160    -0.1096556036389136
 161    -0.1790260016542976
 162     0.3099941706790146
 163    -0.0169836300950621
 164    -0.0015899447057880
 165     0.0003717086154354
 166     0.0075520458492064
 167    -0.1646350571784133
 168    -0.2736328700924688
 169    -0.0054671642996214
 170     0.0008920942481377
 171     0.3472546858934626
 172    -0.0245662308265123
 173    -0.0000478178690622
 174    -0.0026049466129194
 175     0.0108734065121373
 176     0.0499384569020822
 177     0.0965436419990402
 178     0.1078945754960564
 179     0.1800563584138853
 180     0.3109550454663787
 181    -0.0163775699642298
 182     0.0016125771272469
 183     0.0003753759482342
 184     0.0075709572504873
 Sym= 56A
 Ene= -0.101665
 Spin= Alpha
 Occup= 2.000000
  1    -0.0068038244042502
  2    -0.0966131022734943
  3     0.1549410430853956
  4    -0.1502327151320368
  5    -0.2737737447879690
  6     0.0168228657081044
  7    -0.0014428190749080
  8    -0.0002761309721803
  9     0.0073948100682880
 10    -0.1099972591373098
 11     0.2347276916202019
 12     0.0203089413948975
 13     0.0028960503319568
 14    -0.3022808733575364
 15     0.0294314722978383
 16    -0.0003507850326782
 17     0.0034764464219019
 18     0.0119951668355837
 19     0.0097598767546158
 20    -0.0952959910000259
 21    -0.1501182065757134
 22     0.1542618584842412
 23    -0.2764177617919468
 24     0.0150223940137149
 25     0.0014850288095084
 26    -0.0003090872186398
 27     0.0074808150627054
 28     0.0149725882492209
 29    -0.0952311802188480
 30     0.0028949467163063
 31     0.0115926581391031
 32    -0.0298502098921909
 33    -0.0301652967806556
 34     0.0029825959371222
 35    -0.0040730217385288
 36    -0.0049584756862351
 37     0.0183000431715632
 38     0.0008651712869391
 39     0.0106569496179097
 40     0.0000046508810145
 41     0.0433845592221632
 42     0.0030949404079298
 43     0.0462081923505585
 44     0.0037037193164841
 45     0.0328436403416912
 46     0.0007593793539690
 47     0.0300606902256345
 48     0.0001810108453201
 49     0.0540614688993546
 50     0.0034357530685536
 51     0.0513035206215881
 52     0.0029280276876365
 53     0.0514873609819658
 54     0.0029785668094707
 55     0.0542304788264686
 56     0.0034767316767185
 57     0.0298000434297349
 58     0.0001593447611046
 59     0.0315015403088480
 60     0.0006435000642305
 61     0.0446893925831867
 62     0.0036104524447675
 63     0.0430447890567374
 64     0.0030958710360949
 65     0.0096985105993635
 66    -0.0002437484404095
 67     0.0176996108096311
 68     0.0006838709938994
 69    -0.0230996483048552
 70    -0.0016624519879755
 71     0.0003016923099843
 72    -0.0629290124726697
 73    -0.0031118965728722
 74     0.0012664079773549
 75     0.0064529305664203
 76     0.0519055753617667
 77    -0.0115232100239890
 78    -0.0033596949384222
 79    -0.0076609920600482
 80    -0.0821201220133712
 81    -0.0089542385872847
 82     0.0062429217912936
 83     0.0034185894648666
 84    -0.0842818854572745
 85     0.0001578157669965
 86     0.0188196026359909
 87    -0.0140265962010512
 88     0.0792156120729240
 89    -0.0000344897580106
 90    -0.0247965808525225
 91     0.0195370419987777
 92     0.0784662796383821
 93    -0.0276746379690186
 94    -0.0003087242525858
 95    -0.0136965216834869
 96    -0.1396618462765115
 97    -0.0210737078083152
 98    -0.0004295896058117
 99     0.0022150121073419
 100     0.1343152102487254
 101    -0.0067477015627883
 102    -0.0158882910437012
 103    -0.0014455473310291
 104    -0.1128692279192138
 105    -0.0066963328925165
 106     0.0164943955304617
 107    -0.0023658268210046
 108    -0.1136582723437723
 109    -0.0071307613860416
 110    -0.0158144167284313
 111    -0.0034668738217944
 112     0.1133988854498672
 113    -0.0070217528104729
 114     0.0155332050802186
 115    -0.0015516473890564
 116     0.1132044312555864
 117    -0.0206692183888312
 118     0.0001865338225570
 119     0.0003930181770039
 120    -0.1325958390685485
 121    -0.0276617843833601
 122     0.0016375730223686
 123    -0.0141545137104142
 124     0.1380645140942399
 125    -0.0000310529489530
 126     0.0239235965362605
 127     0.0190567272601643
 128    -0.0766416847603029
 129     0.0005446983099617
 130    -0.0194012876484270
 131    -0.0144901680736955
 132    -0.0776387081293889
 133    -0.0089564477898188
 134    -0.0059990827985187
 135     0.0044249272322016
 136     0.0825840744662120
 137    -0.0117243797710023
 138     0.0039121053233462
 139    -0.0064588552065483
 140     0.0804029898416822
 141    -0.0028068431199107
 142    -0.0025058978417852
 143     0.0073219306457341
 144    -0.0497664901731267
 145    -0.0232605016833500
 146     0.0020910725004748
 147     0.0004775475171694
 148     0.0603804470297907
 149    -0.0142602843017060
 150    -0.0896935235959744
 151     0.0029581138690750
 152    -0.0117095510175115
 153    -0.0282636198342265
 154    -0.0262114817615780
 155    -0.0027299585066695
 156    -0.0044908643472794
 157     0.0051171413104207
 158     0.0129338614365990
 159    -0.0870446065994574
 160     0.1447464860923099
 161     0.1310579087049731
 162    -0.2411926501955950
 163     0.0150537113967758
 164     0.0012692858469750
 165    -0.0002716861567419
 166    -0.0066007724729597
 167     0.0928210587165444
 168     0.2059825112417437
 169     0.0200614018494186
 170    -0.0031389577809585
 171    -0.2656622803461701
 172     0.0271185576113251
 173     0.0003140228869820
 174     0.0032045072895817
 175    -0.0108426461564063
 176    -0.0030287379604135
 177    -0.0858347371347433
 178    -0.1399203946583786
 179    -0.1356561021117045
 180    -0.2449044210852668
 181     0.0131075922091161
 182    -0.0013469612130452
 183    -0.0002969022422618
 184    -0.0066929275937304
 Sym= 57A
 Ene= -0.100504
 Spin= Alpha
 Occup= 2.000000
  1    -0.0304851588511148
  2    -0.0695226526739042
  3     0.0246234761309830
  4    -0.0535673119943283
  5    -0.1508112728567150
  6    -0.0458036146590477
  7    -0.0032557145258332
  8    -0.0046617401568782
  9     0.0032338854959176
 10    -0.0201679938038321
 11    -0.0666287698843807
 12    -0.3816098645123779
 13    -0.0806681796014269
 14     0.0816956176995716
 15     0.0165609315561848
 16    -0.0021146810909203
 17    -0.0030928306616126
 18    -0.0081406888556326
 19    -0.2798306040761588
 20    -0.0774433503745363
 21    -0.1470681831894440
 22    -0.0820854964490485
 23     0.0850847582565616
 24     0.0137917209488244
 25    -0.0033572249051171
 26    -0.0049330237194699
 27    -0.0031333570688103
 28    -0.0188360510347048
 29    -0.2354253025231322
 30    -0.0621608549011555
 31    -0.2364156674885822
 32    -0.0023588930735189
 33    -0.0074522062044557
 34     0.0002684467112237
 35    -0.0077623975485346
 36    -0.0056416128432089
 37    -0.0488951103735498
 38    -0.0078331557143304
 39     0.0000522901368259
 40     0.0013553419982472
 41     0.0027497775546965
 42     0.0013186400220142
 43    -0.0081404965898408
 44    -0.0010214466748708
 45    -0.0044969843832912
 46     0.0010500638270430
 47    -0.0088668455704689
 48    -0.0026549647428968
 49     0.0070092789111098
 50     0.0020090119507390
 51    -0.0018854335707813
 52    -0.0007321530052327
 53     0.0016121518669205
 54     0.0006667247652056
 55    -0.0049974819058154
 56    -0.0018351473432734
 57     0.0091504579923126
 58     0.0025983279037751
 59     0.0051409798525369
 60    -0.0009892073217327
 61     0.0090580532141578
 62     0.0011539597789798
 63    -0.0023185446316835
 64    -0.0013303258826951
 65    -0.0013622796879649
 66    -0.0016227128784057
 67     0.0507788052481082
 68     0.0081114284775834
 69     0.0036682801321045
 70     0.0304967451409885
 71    -0.0339887299051828
 72     0.0230763451114300
 73     0.0057244869149191
 74     0.0236939817002603
 75     0.0876631027454660
 76    -0.0251921636496074
 77     0.0023008144559275
 78     0.0227488307780526
 79     0.0562232996745772
 80    -0.0107621605409233
 81    -0.0014780908392923
 82     0.0366776411154852
 83     0.0617071175529140
 84     0.0239040622493287
 85     0.0088044628462922
 86     0.0052522452299450
 87    -0.0141307074771399
 88     0.0095249946469770
 89    -0.0068441223581624
 90     0.0056935975998486
 91    -0.0065589597577961
 92    -0.0296774761179332
 93    -0.0001461644865620
 94    -0.0482401394659993
 95    -0.0658286669532717
 96     0.0072498373597564
 97     0.0014676641558496
 98     0.0144082824034287
 99    -0.1215155203491989
 100    -0.0020709014669261
 101     0.0049290030208787
 102    -0.0016649326967067
 103    -0.0470623377676115
 104    -0.0196734628034176
 105    -0.0042977227325213
 106    -0.0076589879615761
 107    -0.0564511285184283
 108     0.0174448127118715
 109     0.0043964384784398
 110    -0.0090747046368532
 111     0.0564061476540588
 112     0.0194060379397778
 113    -0.0052779087121555
 114    -0.0026582902447269
 115     0.0470251020548832
 116    -0.0180231305222619
 117    -0.0016801742730691
 118     0.0161406046473534
 119     0.1215346831840474
 120    -0.0043637397139229
 121    -0.0003435419531950
 122    -0.0487816039221967
 123     0.0657832100571323
 124     0.0094834296425901
 125     0.0068719785428919
 126     0.0064240945498771
 127     0.0073216169680690
 128    -0.0312508430872556
 129    -0.0088458658333127
 130     0.0052769352261373
 131     0.0143749563422787
 132     0.0086983550483865
 133     0.0016263981577133
 134     0.0367901776695726
 135    -0.0619556951267605
 136     0.0255444551293423
 137    -0.0027175699542073
 138     0.0228226846273539
 139    -0.0563666458605040
 140    -0.0099822410692288
 141    -0.0058829999681513
 142     0.0235132718024154
 143    -0.0881602745586064
 144    -0.0261860943601101
 145    -0.0041289588619609
 146     0.0322607455527335
 147     0.0343813166909299
 148     0.0240919578249873
 149    -0.0195820282259183
 150     0.2409806988128032
 151     0.0647975171193056
 152    -0.2417550281782227
 153     0.0021275395715244
 154     0.0076463373912074
 155     0.0003942130400805
 156     0.0079166941631507
 157    -0.0056039829446813
 158    -0.0318802907578537
 159     0.0713426601165641
 160    -0.0250462899581428
 161    -0.0554642924876667
 162     0.1559264292309117
 163     0.0471135048305739
 164    -0.0033502181705966
 165     0.0047851891993258
 166     0.0033782775700820
 167    -0.0204388847720674
 168     0.0683424874734742
 169     0.3930903151045522
 170    -0.0826136371804686
 171    -0.0840176223095420
 172    -0.0169228006132438
 173    -0.0020932104604752
 174     0.0031997055924511
 175    -0.0083932361365147
 176    -0.2882104928339454
 177     0.0790850466743281
 178     0.1516808696811819
 179    -0.0843058291534231
 180    -0.0882593879620813
 181    -0.0142836964780399
 182    -0.0034843494886010
 183     0.0050290458711241
 184    -0.0032252886156708
 Sym= 58A
 Ene= -0.100219
 Spin= Alpha
 Occup= 2.000000
  1     0.1530883563563006
  2     0.0019315604938457
  3    -0.0703608869433339
  4    -0.0878784878748981
  5    -0.1612795958673327
  6    -0.0390072125919047
  7    -0.0046527261284900
  8    -0.0000457532928086
  9     0.0046192347182150
 10     0.0041523532895545
 11    -0.0020015636780406
 12    -0.4966391464062908
 13    -0.1006850968794916
 14     0.0010983738363211
 15     0.0007215917076892
 16    -0.0018168982913072
 17     0.0000985566924819
 18     0.0000484078420383
 19    -0.1704967421652640
 20    -0.0039279978255037
 21    -0.0927306504111579
 22    -0.0907132441582047
 23     0.1611236332702071
 24     0.0389390687526152
 25    -0.0042546604020723
 26    -0.0000532890808120
 27    -0.0043034548223527
 28     0.0002339191997109
 29    -0.0043883090638158
 30    -0.0868150492532070
 31    -0.2888612374264845
 32    -0.0043944715430575
 33    -0.0000798549580135
 34     0.0027201041018099
 35    -0.0014974636329596
 36    -0.0020332398466781
 37    -0.0359829469474904
 38    -0.0073925976575836
 39     0.0403548943099588
 40     0.0070052477235532
 41     0.0203606510123901
 42     0.0034091245558153
 43    -0.0083658557546455
 44    -0.0019552987249789
 45    -0.0100238387848990
 46    -0.0028100178420272
 47     0.0171388234463302
 48     0.0027981920703088
 49    -0.0335196943740953
 50    -0.0041454040759926
 51     0.0456234956312363
 52     0.0048442747622926
 53     0.0455990154654585
 54     0.0047992479657124
 55    -0.0336196071067916
 56    -0.0041564422982582
 57     0.0152837258103648
 58     0.0026836437273406
 59    -0.0075934664071839
 60    -0.0026274141037919
 61    -0.0059443364433832
 62    -0.0017231375726881
 63     0.0181218157810636
 64     0.0032012647545370
 65     0.0419822680972125
 66     0.0072327459075167
 67    -0.0358118002158251
 68    -0.0072425898536325
 69    -0.0046550196410084
 70     0.0514140473576491
 71     0.0009058501139915
 72    -0.0048844043045954
 73    -0.0001614703028838
 74     0.0072011742043530
 75     0.0075983110699675
 76     0.0056403119183031
 77     0.0061219776175146
 78    -0.0097395717923836
 79    -0.0055347759920150
 80    -0.0211088974262840
 81    -0.0071082043684366
 82    -0.0043641636351081
 83     0.0018954215936024
 84     0.0003610863732356
 85     0.0016077491610381
 86     0.0191103485413120
 87    -0.0256340619761608
 88     0.0219733721867147
 89    -0.0021439730981024
 90     0.0153909337181629
 91    -0.0191381671606136
 92    -0.0002492152748780
 93    -0.0026128340794438
 94    -0.0289046560153499
 95     0.0000342212771426
 96    -0.0163622255940260
 97    -0.0027849434177416
 98     0.0522489430642234
 99     0.0012088812679761
 100     0.0151422828530998
 101     0.0059144733325701
 102    -0.0490176146368971
 103    -0.0013255199276673
 104    -0.0176856627071053
 105    -0.0075023759732972
 106    -0.0449388266757570
 107     0.0002392617596192
 108    -0.0070861181504268
 109    -0.0071875551588983
 110     0.0440014057049228
 111     0.0025699631033493
 112     0.0081429234161378
 113     0.0055006239618995
 114     0.0482965408718850
 115     0.0013255963686249
 116     0.0166325280428643
 117    -0.0028370848333884
 118    -0.0511710174949347
 119     0.0071947367847789
 120    -0.0151731664745729
 121    -0.0026120034430689
 122     0.0240127347637108
 123     0.0027655004975234
 124     0.0166319177740618
 125    -0.0014828636443622
 126    -0.0131879045070643
 127    -0.0172930317628070
 128    -0.0008886350821088
 129     0.0008572449247978
 130    -0.0168112976269552
 131    -0.0237714930055972
 132    -0.0215067027448051
 133    -0.0075964297212612
 134     0.0036724492156740
 135    -0.0021344324981436
 136    -0.0000243470223637
 137     0.0065727596532425
 138     0.0085251284068966
 139    -0.0096913256833715
 140     0.0211413399500217
 141    -0.0004270322498421
 142    -0.0027947143616788
 143     0.0038913192203790
 144    -0.0067178178042294
 145    -0.0045211414915474
 146    -0.0520053654924236
 147     0.0010065613620966
 148     0.0061342318073594
 149    -0.0009741781792318
 150     0.0002834815105054
 151    -0.0860345610201617
 152     0.2835233608469306
 153    -0.0054888903829432
 154     0.0007697642429272
 155    -0.0029835119294276
 156    -0.0009989246739300
 157     0.0016022184928625
 158    -0.1550244894775874
 159     0.0031262509763630
 160    -0.0714453489699374
 161     0.0875002440440210
 162    -0.1604257065680371
 163    -0.0379173423938906
 164     0.0045762379274913
 165     0.0000736410232364
 166    -0.0046931627492911
 167    -0.0040411841946972
 168     0.0008184841846286
 169    -0.4907459250630484
 170     0.0989609608525115
 171    -0.0020118557996526
 172     0.0007688835252060
 173     0.0016375358593830
 174     0.0000977768459325
 175    -0.0003950340421616
 176     0.1646503876775946
 177    -0.0024083973715105
 178    -0.0895604795254608
 179     0.0887787300654391
 180     0.1589998352607702
 181     0.0390573206195044
 182     0.0042457217187019
 183     0.0000994045898175
 184     0.0041830209247597
 Sym= 59A
 Ene= -0.099140
 Spin= Alpha
 Occup= 2.000000
  1     0.3437153414254497
  2     0.0770517441690079
  3    -0.2134378322161752
  4    -0.0456335808165190
  5    -0.0596847972594118
  6    -0.0029465227945660
  7    -0.0025724818760057
  8     0.0036301669898019
  9     0.0042664848097044
 10    -0.0328525927899859
 11     0.0810576324483492
 12    -0.3002048769660469
 13    -0.0522920469123826
 14    -0.1188883309519200
 15    -0.0150564588688461
 16     0.0016348490938566
 17     0.0015202624817377
 18     0.0109781795734681
 19     0.1409856158069898
 20     0.0802729819320867
 21     0.1132802504488497
 22    -0.0663083504253236
 23     0.1650473143020346
 24     0.0446090561095461
 25    -0.0035333061104044
 26     0.0042670164179334
 27    -0.0028668156587450
 28     0.0609222447920437
 29     0.1781701193831789
 30    -0.0595908155505730
 31    -0.1315258697887031
 32    -0.0534762915582712
 33     0.0316417621590274
 34     0.0088259051999735
 35     0.0169217423099285
 36     0.0048046217750738
 37    -0.0350500944345982
 38    -0.0029361251813270
 39     0.0594344482479361
 40     0.0097624439982627
 41    -0.0423635363404281
 42    -0.0025318143032517
 43     0.0574822987661886
 44     0.0054710668067079
 45     0.0611391337481375
 46     0.0053723218981096
 47    -0.0414184639725451
 48    -0.0033860993602055
 49    -0.0014346018891385
 50     0.0003585931760629
 51    -0.0046909333881439
 52    -0.0020125325646077
 53     0.0046874778347143
 54     0.0020360877885454
 55    -0.0004780596274160
 56    -0.0004765140604401
 57     0.0404819869730986
 58     0.0033776300681437
 59    -0.0618695044541510
 60    -0.0054285801799265
 61    -0.0581574275978549
 62    -0.0055574191708180
 63     0.0412628758822285
 64     0.0024334824261566
 65    -0.0591128649584219
 66    -0.0097390254217980
 67     0.0338778757241956
 68     0.0027217728251594
 69     0.0005109802839490
 70     0.0528149608331935
 71    -0.0136442966296796
 72    -0.0318260733494585
 73    -0.0058454921288547
 74    -0.0938161077205317
 75    -0.0373939829941590
 76     0.0304797684234842
 77     0.0159572777649894
 78     0.0434460172943642
 79    -0.0698906283065714
 80    -0.0248457846351144
 81    -0.0143230617931884
 82     0.0338779000010006
 83    -0.0663361835054478
 84    -0.0042282457657874
 85    -0.0161743191785793
 86    -0.0511755077340605
 87     0.0353308825601681
 88     0.0113121653075505
 89     0.0121218343078499
 90    -0.0503319351419187
 91     0.0331109097242889
 92     0.0225877846555173
 93     0.0010055802882486
 94     0.0857185039462264
 95     0.0279768551479992
 96    -0.0121856620561920
 97    -0.0039389167845664
 98    -0.0175922414091644
 99     0.0793014440916067
 100     0.0109885308781183
 101    -0.0052330448579582
 102     0.0126051307376948
 103     0.0323304945733155
 104     0.0158683711854240
 105     0.0076503137582148
 106     0.0226013702893687
 107     0.0402781522698308
 108    -0.0131100382795837
 109    -0.0077625908841100
 110     0.0239769242644062
 111    -0.0392836286062268
 112    -0.0153059867206191
 113     0.0056924698758278
 114     0.0133159240285959
 115    -0.0312927283197989
 116     0.0139915789871369
 117     0.0043756766866614
 118    -0.0190329770840209
 119    -0.0790942257464500
 120     0.0136970449435312
 121    -0.0004573777073966
 122     0.0864124217676276
 123    -0.0299713758075434
 124    -0.0149921268921416
 125    -0.0121224583212319
 126    -0.0500819912551937
 127    -0.0348672192336347
 128     0.0244508822578504
 129     0.0162935017856338
 130    -0.0502733641264844
 131    -0.0365641033071541
 132     0.0130598683530835
 133     0.0143530828085157
 134     0.0333768822752823
 135     0.0664112842937055
 136    -0.0061901471338624
 137    -0.0156720976953073
 138     0.0432125151158338
 139     0.0702613326018437
 140    -0.0266528653741866
 141     0.0060629310943770
 142    -0.0941858136941934
 143     0.0394124370755412
 144     0.0325423779083439
 145    -0.0003795798003999
 146     0.0516771527342977
 147     0.0153605445706743
 148    -0.0340517269121543
 149     0.0633325892420757
 150    -0.1807860291135567
 151     0.0588957175660711
 152    -0.1280430618769242
 153     0.0570500365754265
 154    -0.0332644883811493
 155     0.0087760952475238
 156    -0.0175290811904905
 157     0.0047684935895508
 158     0.3490161275581316
 159    -0.0788061754555020
 160     0.2168799123450134
 161    -0.0441143171323805
 162     0.0572848506210327
 163     0.0017812468431618
 164    -0.0025092994844593
 165    -0.0037111474937904
 166     0.0043146823148531
 167    -0.0344674801748194
 168    -0.0839858945801293
 169     0.2959669050898400
 170    -0.0511781129564268
 171     0.1229457101092859
 172     0.0149752033023320
 173     0.0016825694383957
 174    -0.0015422019501657
 175     0.0114390754799979
 176     0.1497172117453914
 177    -0.0822415956962895
 178    -0.1187833911489184
 179    -0.0660181249179094
 180    -0.1643762767877915
 181    -0.0449788726570115
 182    -0.0034985227465149
 183    -0.0043764935286143
 184    -0.0027411175447678
 Sym= 60A
 Ene= -0.098566
 Spin= Alpha
 Occup= 2.000000
  1    -0.3338204273779524
  2    -0.0946788002904311
  3     0.2246185636158434
  4    -0.0267502473421917
  5    -0.0764807195661151
  6    -0.0284074789300557
  7    -0.0006864797604085
  8    -0.0038430062737606
  9    -0.0002624650947886
 10     0.0616022402089465
 11    -0.1106883558756583
 12    -0.0120899966840248
 13    -0.0018652220611587
 14     0.1703912764388607
 15     0.0158923277975232
 16     0.0001782599649507
 17    -0.0029482824284927
 18    -0.0159970151571223
 19    -0.3415730492083222
 20    -0.0947321465780483
 21    -0.2259998671960011
 22     0.0226957287829443
 23    -0.0685290413804689
 24    -0.0267361075916871
 25     0.0004492857553934
 26    -0.0038640802816180
 27    -0.0006019631897663
 28    -0.1020824524380838
 29    -0.1676020641138648
 30    -0.0013968017518698
 31    -0.0042265402187839
 32     0.0946951808584538
 33    -0.0455851077589060
 34     0.0006701965709932
 35    -0.0222962248531167
 36     0.0006043648605323
 37    -0.0129418197277542
 38    -0.0026185782838130
 39    -0.0072544435602640
 40    -0.0032044695794467
 41    -0.0479974859870587
 42    -0.0055526562077947
 43     0.0043665623272774
 44     0.0000936157889349
 45     0.0080727176436907
 46     0.0031405398229627
 47    -0.0462863465026952
 48    -0.0046865389428678
 49     0.0104618640136282
 50     0.0040742647706631
 51    -0.0526099567874801
 52    -0.0061855473990456
 53    -0.0527530209521378
 54    -0.0062309636208383
 55     0.0103458198042839
 56     0.0040472668329265
 57    -0.0469004153900289
 58    -0.0046947271867531
 59     0.0095522166522326
 60     0.0032452496501052
 61     0.0057459334720437
 62     0.0002084293585206
 63    -0.0486266390933678
 64    -0.0055848894226119
 65    -0.0053525286805346
 66    -0.0029199073633215
 67    -0.0135389467698667
 68    -0.0026738155617103
 69     0.0026713611237423
 70     0.0029930539076499
 71     0.0381455034190051
 72     0.0551493479219134
 73     0.0082251045392524
 74    -0.0087787265496596
 75     0.0532894303921629
 76    -0.0494967592465890
 77     0.0022748577135668
 78     0.0256176582474638
 79     0.0061947209616638
 80     0.0448045727434498
 81     0.0026141103484690
 82     0.0321246017898435
 83    -0.0008171221048032
 84     0.0432997908849160
 85    -0.0010266041025963
 86    -0.0533921825919388
 87    -0.0134470330562157
 88    -0.0470235819309731
 89     0.0065898232716288
 90    -0.0375808535281922
 91    -0.0215503015991680
 92    -0.0371214093561505
 93     0.0112708530037807
 94     0.0119903506250194
 95    -0.0637659294376811
 96     0.0629210482065956
 97     0.0120205884804356
 98    -0.0388056147745774
 99    -0.0015246226653059
 100    -0.0583425386081170
 101     0.0029436076265780
 102     0.0446397481553358
 103     0.0310770261819454
 104     0.0472573251813618
 105     0.0037698633378084
 106     0.0287623409948230
 107     0.0290153842307978
 108     0.0430907734093550
 109     0.0040667976633022
 110    -0.0294040355690993
 111     0.0313442713141826
 112    -0.0425577032736768
 113     0.0028071976094151
 114    -0.0447806847849624
 115     0.0324576503672696
 116    -0.0478984326146627
 117     0.0118483461966838
 118     0.0394481789925003
 119     0.0025537246850387
 120     0.0576922028005413
 121     0.0112849433205579
 122    -0.0146176863689761
 123    -0.0619309528793600
 124    -0.0621228262957813
 125     0.0070246402251399
 126     0.0387265299460554
 127    -0.0207135682391789
 128     0.0360722572851123
 129    -0.0016517928387443
 130     0.0545346030312629
 131    -0.0126949476060876
 132     0.0464152929036556
 133     0.0021555015698259
 134    -0.0324134876503276
 135    -0.0031407334115400
 136    -0.0428246869132362
 137     0.0027257502767094
 138    -0.0261390365019494
 139     0.0035401476007029
 140    -0.0438902352647598
 141     0.0080543085831670
 142     0.0115045220509206
 143     0.0510435859308183
 144     0.0483327297812337
 145     0.0025515007689096
 146    -0.0047243622139939
 147     0.0382589277050199
 148    -0.0538774122509818
 149     0.1005184661054311
 150    -0.1604425195227277
 151    -0.0013001617605434
 152     0.0048417336176763
 153     0.0938126813315854
 154    -0.0448382894611651
 155    -0.0008747429253397
 156    -0.0217915327602608
 157    -0.0008313822514607
 158     0.3254296484475850
 159    -0.0919486574899545
 160     0.2192645923910445
 161     0.0268889658911275
 162    -0.0752457821226299
 163    -0.0278231259398962
 164     0.0006934116888054
 165    -0.0036816736146381
 166     0.0002482073669065
 167    -0.0611365524791195
 168    -0.1079734764072831
 169    -0.0123257007430179
 170     0.0019824472870778
 171     0.1665708273634189
 172     0.0153168560659834
 173    -0.0002557631887288
 174    -0.0028863675719800
 175     0.0156507808072883
 176     0.3346073840593654
 177    -0.0922806717422759
 178    -0.2212751335923326
 179    -0.0226863886669303
 180    -0.0666904232892425
 181    -0.0259888736906425
 182    -0.0004187644810719
 183    -0.0037156333082921
 184     0.0006115549124787
 Sym= 61A
 Ene= -0.095459
 Spin= Alpha
 Occup= 2.000000
  1     0.1036808520067775
  2     0.0123926179453967
  3    -0.0827522681793938
  4     0.0098566098135283
  5    -0.0155967687002949
  6    -0.0033978850591674
  7    -0.0005569482169943
  8    -0.0021763408706545
  9     0.0036210464476438
 10    -0.0824532032150649
 11     0.0254072068407437
 12    -0.0852194389353399
 13    -0.0088918994449351
 14    -0.0577621928812673
 15    -0.0049898834882773
 16     0.0031034789773984
 17    -0.0001802999548539
 18     0.0001706590124792
 19     0.0285783261356966
 20     0.0207487116364396
 21     0.0664858330446684
 22    -0.0528483348936483
 23     0.0856301824907553
 24     0.0107520781548915
 25    -0.0021155676292718
 26    -0.0011712720133705
 27    -0.0004350534168400
 28     0.0583149505199346
 29    -0.0989134314936408
 30    -0.0222888674154052
 31     0.0177688044956215
 32    -0.0588893401038842
 33     0.0199306596931570
 34     0.0115604265505462
 35     0.0036386975739217
 36    -0.0012247027104794
 37    -0.0510543953844459
 38    -0.0023674104954973
 39     0.0191950649264327
 40     0.0017078962689490
 41    -0.1198118225162435
 42    -0.0117182533128581
 43     0.1277389940012067
 44     0.0141619124679037
 45     0.1400142548123023
 46     0.0206666903276075
 47    -0.1360923222027021
 48    -0.0206810234733310
 49     0.1740698048878137
 50     0.0248932846285565
 51    -0.1659590951917185
 52    -0.0242943646541129
 53    -0.1661745155467232
 54    -0.0242795565255312
 55     0.1738463659357408
 56     0.0248009406205957
 57    -0.1341513755430714
 58    -0.0204506891384306
 59     0.1387977798421962
 60     0.0205166050561180
 61     0.1262360739581512
 62     0.0139591414681259
 63    -0.1180341830449545
 64    -0.0115751747151477
 65     0.0194222722821847
 66     0.0016882459976399
 67    -0.0503330799061382
 68    -0.0023834310209531
 69     0.0037924303136061
 70     0.0277645980816879
 71    -0.0398086955064727
 72    -0.0046032422361593
 73     0.0006234088015688
 74    -0.1369229594187589
 75     0.0910098087567579
 76    -0.0021374602403965
 77     0.0134584109552515
 78     0.1363926022660132
 79    -0.0256402497373498
 80    -0.0201551510111802
 81    -0.0144151373334356
 82     0.1398060444135690
 83    -0.0208331175993345
 84     0.0101736009690247
 85    -0.0247959238020773
 86    -0.1603110895168909
 87     0.0682658605774359
 88    -0.0118959767175998
 89     0.0244666611386942
 90    -0.1607431343958020
 91     0.0813518141566997
 92     0.0159166911421670
 93    -0.0017085982425588
 94     0.1443846559051606
 95    -0.1168277691645091
 96    -0.0047884360372273
 97    -0.0018092510792808
 98    -0.2159913214332881
 99    -0.0177992328226460
 100     0.0119195108695996
 101    -0.0196653775652733
 102     0.2013132311636558
 103     0.0400595584191595
 104     0.0078499720660370
 105     0.0188170294791115
 106     0.2025417812623627
 107     0.0304494555587161
 108    -0.0288573099943267
 109     0.0188232158021015
 110    -0.2025643419764824
 111     0.0332131433161519
 112     0.0288048811768989
 113    -0.0197632235888385
 114    -0.2009377681224353
 115     0.0392846333883490
 116    -0.0079838888451256
 117    -0.0019267786027705
 118     0.2161370743551453
 119    -0.0170541507693064
 120    -0.0123067026443519
 121    -0.0016786405702818
 122    -0.1427443368248726
 123    -0.1156558976835737
 124     0.0052872226375365
 125     0.0245313289290668
 126     0.1593078436961039
 127     0.0800517510033435
 128    -0.0165724280740060
 129    -0.0247805807405828
 130     0.1588472928839127
 131     0.0674773684519887
 132     0.0111028608130326
 133    -0.0142683385120418
 134    -0.1378940633352208
 135    -0.0203622175729176
 136    -0.0093600017997184
 137     0.0131183659761299
 138    -0.1347423069394566
 139    -0.0250579792132749
 140     0.0206085813314265
 141     0.0008664138982505
 142     0.1351775820265830
 143     0.0899888869136865
 144     0.0015025674402383
 145     0.0035367562423044
 146    -0.0273952081531373
 147    -0.0390724436334326
 148     0.0049029530249804
 149    -0.0566997738457926
 150    -0.0970107590559319
 151    -0.0234178520809790
 152    -0.0198159946611201
 153    -0.0587851243106946
 154     0.0196017017677362
 155    -0.0113561865994447
 156     0.0033286983399889
 157     0.0014380821092190
 158    -0.1007810858258752
 159     0.0123562135551740
 160    -0.0805183124388917
 161    -0.0095331090659321
 162    -0.0162222471167794
 163    -0.0034778601700002
 164     0.0006327654586329
 165    -0.0021539029389402
 166    -0.0036835047755646
 167     0.0817189201733490
 168     0.0251600314327017
 169    -0.0871728661797465
 170     0.0086178889317421
 171    -0.0569765854603753
 172    -0.0049529952434712
 173    -0.0031461546584358
 174    -0.0001761035468369
 175    -0.0000790680980222
 176    -0.0259759854486023
 177     0.0212964185010078
 178     0.0643220206106934
 179     0.0529789420639866
 180     0.0858734465137393
 181     0.0106614105583568
 182     0.0020307881062132
 183    -0.0010782760807444
 184     0.0004503738748080
 Sym= 62A
 Ene= -0.095263
 Spin= Alpha
 Occup= 2.000000
  1    -0.1268202418013849
  2    -0.0473591338879305
  3     0.1614568590141189
  4    -0.0969763469389702
  5    -0.1420814924537908
  6    -0.0119126968756404
  7    -0.0017969159311077
  8     0.0038611029724851
  9     0.0017474043658564
 10     0.1852792024769075
 11    -0.0575440580085622
 12    -0.1013484090160515
 13    -0.0054872750441966
 14     0.1346771813780211
 15     0.0149774939001014
 16     0.0035166734559089
 17    -0.0030690213431988
 18    -0.0002209313348240
 19    -0.1932241771837040
 20    -0.0324074891813622
 21    -0.1810605496243039
 22     0.0505936594941001
 23    -0.0374083080528650
 24     0.0013724098165899
 25    -0.0005899464942914
 26     0.0056060275291511
 27    -0.0029020525140227
 28    -0.1347464752385058
 29     0.2333253959386078
 30    -0.0348319131576609
 31     0.0371172264991866
 32     0.1201101447744715
 33    -0.0266615457880654
 34     0.0070180564789045
 35    -0.0046037945784636
 36     0.0168459424490585
 37     0.0050063610450799
 38    -0.0005529580783752
 39     0.0617870576058551
 40     0.0065416887653472
 41    -0.0463310975524266
 42    -0.0047641317050147
 43     0.0365308027076481
 44     0.0025343571666908
 45     0.0321139610302215
 46     0.0007544189285047
 47    -0.0363539437486578
 48    -0.0005014097959628
 49    -0.0031192885271843
 50    -0.0006197085112496
 51     0.0016422627912125
 52     0.0001724901657675
 53    -0.0018301168887014
 54    -0.0002075510389442
 55     0.0026393082635812
 56     0.0006214728372720
 57     0.0358563969723070
 58     0.0004651355959539
 59    -0.0319383524901171
 60    -0.0007167110970630
 61    -0.0363564667496815
 62    -0.0025210412397024
 63     0.0457378054063683
 64     0.0047070239266474
 65    -0.0613654193011499
 66    -0.0064831743573143
 67    -0.0058213671598713
 68     0.0004456064015519
 69    -0.0101007563429738
 70     0.0355178376001469
 71     0.0838986321393198
 72     0.0086424493516539
 73    -0.0020365415154647
 74    -0.0944693200211907
 75    -0.1256478655786561
 76    -0.0014542110500516
 77     0.0091111396291573
 78    -0.0125843791898761
 79    -0.1359419798076898
 80     0.0250867049371142
 81    -0.0130190883773970
 82    -0.0164821861802822
 83    -0.1387191451467568
 84     0.0037455199464245
 85    -0.0194575812177107
 86    -0.0531542645483334
 87     0.0124644703828109
 88    -0.0325921252174786
 89     0.0229302555408760
 90    -0.0518910335086273
 91     0.0124310691358617
 92     0.0183584323546938
 93     0.0005797106560391
 94     0.1139536508283314
 95     0.0920719328271698
 96     0.0017097383275492
 97     0.0027117577460812
 98    -0.0279454648217829
 99     0.2351122093305252
 100    -0.0151608244586922
 101    -0.0120246203410405
 102     0.0190411618156170
 103     0.1053286658802765
 104     0.0282924399983858
 105     0.0067853436548023
 106     0.0166658573544756
 107     0.1051064799187656
 108    -0.0293938207031297
 109    -0.0068505088307466
 110     0.0166775401098161
 111    -0.1046441058541644
 112    -0.0300361590086869
 113     0.0122916227077814
 114     0.0189404745168622
 115    -0.1048075432763289
 116     0.0278053760669206
 117    -0.0028081644316286
 118    -0.0286705313386784
 119    -0.2352728383530569
 120    -0.0140957509636304
 121    -0.0003481402844136
 122     0.1139984102131718
 123    -0.0936444812963137
 124     0.0007816442151774
 125    -0.0229720771815240
 126    -0.0513613201807469
 127    -0.0132003671763210
 128     0.0187854312457578
 129     0.0195460895931321
 130    -0.0526010612629920
 131    -0.0125497999971330
 132    -0.0321096725289779
 133     0.0129928619089964
 134    -0.0169549516364848
 135     0.1391258379320372
 136     0.0034111989428209
 137    -0.0090922386035306
 138    -0.0131432817578230
 139     0.1367880496922589
 140     0.0247653780884302
 141     0.0021478356584297
 142    -0.0945703726757940
 143     0.1274299157133154
 144    -0.0008250814801386
 145     0.0101673518138888
 146     0.0353755202803422
 147    -0.0835079939846828
 148     0.0080157536566163
 149    -0.1355314364774770
 150    -0.2358365599526367
 151     0.0322398016218092
 152     0.0344175614062167
 153    -0.1208194724730045
 154     0.0264775865152650
 155     0.0069035496350461
 156     0.0043523081499444
 157     0.0170516213051387
 158    -0.1271849496346159
 159     0.0474807206633975
 160    -0.1626942625718502
 161    -0.0964579213728430
 162     0.1405816042552802
 163     0.0114670074966865
 164    -0.0017142168026562
 165    -0.0039424104747974
 166     0.0015912035041580
 167     0.1874493115811885
 168     0.0582895682184810
 169     0.0946222650510216
 170    -0.0051568910891176
 171    -0.1363608554232292
 172    -0.0153717932686264
 173     0.0034747684236151
 174     0.0031501503643531
 175    -0.0001220620693954
 176    -0.1922621807999118
 177     0.0340120189481965
 178     0.1811435949537617
 179     0.0532278601049532
 180     0.0420429283906646
 181    -0.0011483116073174
 182    -0.0005640906036154
 183    -0.0055859347582224
 184    -0.0027545373909458
 Sym= 63A
 Ene= -0.092544
 Spin= Alpha
 Occup= 2.000000
  1     0.2275218780896347
  2    -0.1445959905168472
  3     0.0667738429758891
  4    -0.1522132185708599
  5    -0.1403923818733703
  6     0.0020159897289981
  7     0.0098114574735572
  8    -0.0112606389388126
  9    -0.0065253828909762
 10     0.2825613283300135
 11    -0.3036136074544356
 12    -0.0120522205152276
 13    -0.0001203689455341
 14     0.1741564974186877
 15    -0.0048501094081185
 16     0.0007067494713857
 17     0.0064474025741553
 18     0.0161648844352944
 19     0.2077584969752621
 20    -0.1364772952065613
 21    -0.0606835275419522
 22     0.1356762138493449
 23    -0.1164978339011952
 24     0.0033874641199272
 25    -0.0101100159185811
 26    -0.0109577687600747
 27    -0.0070631911438912
 28     0.0506597209147317
 29     0.0685673592700629
 30    -0.0079684801263669
 31     0.0196918490311655
 32     0.0133831208407657
 33    -0.0015539767845081
 34     0.0011654690886736
 35     0.0169467781354304
 36     0.0024467054553023
 37    -0.0095805685177746
 38    -0.0008730852072105
 39     0.0015134878219191
 40     0.0003342622625046
 41    -0.0120309957767622
 42    -0.0003434567528404
 43     0.0105745378006758
 44     0.0015337555775377
 45     0.0124556550222538
 46     0.0019418112767304
 47    -0.0136202441543839
 48    -0.0019315532369070
 49     0.0163654825729934
 50     0.0021276641896310
 51    -0.0165684300935208
 52    -0.0021193482612639
 53    -0.0166404101375950
 54    -0.0021247056647204
 55     0.0165347459321783
 56     0.0021740113126124
 57    -0.0127851886200023
 58    -0.0019815452591689
 59     0.0114112615777378
 60     0.0019545362735714
 61     0.0093880504975946
 62     0.0014790145355589
 63    -0.0107725686342921
 64    -0.0001034485595524
 65    -0.0018585146282427
 66     0.0000554625041304
 67    -0.0101577964547812
 68    -0.0010855329299078
 69    -0.0036797248725195
 70     0.0047793975778207
 71    -0.0135778710840507
 72     0.0039901038335869
 73    -0.0003413300288398
 74    -0.0220725340099291
 75    -0.0114578678377231
 76    -0.0010756354064987
 77     0.0021499929879248
 78     0.0101567545543096
 79    -0.0089349246570145
 80    -0.0005615893942569
 81    -0.0032434984761823
 82     0.0107181914915524
 83    -0.0094626654015883
 84     0.0044215773331589
 85    -0.0027622986148317
 86    -0.0101324323620936
 87     0.0183161876151725
 88    -0.0032288035528562
 89     0.0032521880733492
 90    -0.0100747100771839
 91     0.0186887439554937
 92    -0.0008044132163781
 93     0.0000390097220163
 94     0.0224035562763771
 95     0.0101106471877693
 96    -0.0000824472344352
 97     0.0003386833612874
 98    -0.0221269560069340
 99     0.0022664427514926
 100    -0.0004895546598399
 101    -0.0033381563637073
 102     0.0205974700197659
 103    -0.0030723666976688
 104     0.0026900133830633
 105     0.0033891079718737
 106     0.0201717651117612
 107    -0.0038788198178050
 108    -0.0027448658686682
 109     0.0031708279613440
 110    -0.0196264035843951
 111    -0.0083307683310704
 112     0.0016952270734656
 113    -0.0029333859593819
 114    -0.0201095352199450
 115    -0.0075509173407918
 116    -0.0016727591943353
 117     0.0002989112208412
 118     0.0211802969681291
 119    -0.0077752949230455
 120     0.0001089732450836
 121     0.0000252534157994
 122    -0.0184475155925669
 123     0.0066568496884347
 124    -0.0000149095937987
 125     0.0024569840024313
 126     0.0081722957536831
 127     0.0189292993952566
 128     0.0019310921442563
 129    -0.0019652580132306
 130     0.0081772228981612
 131     0.0185093660810039
 132     0.0022852429986501
 133    -0.0028957337748033
 134    -0.0121650178794757
 135    -0.0039651906674883
 136    -0.0047657455373292
 137     0.0018141462534187
 138    -0.0111450997600837
 139    -0.0034329383148079
 140     0.0013221363192261
 141    -0.0001872978389611
 142     0.0190947407826097
 143    -0.0067688134859999
 144     0.0015639623140480
 145    -0.0040280533727524
 146    -0.0036846491711585
 147    -0.0180210199506371
 148    -0.0048006293472273
 149    -0.0635513528999877
 150     0.0662148402897845
 151    -0.0164349393331411
 152    -0.0360745672205200
 153     0.0111821220146883
 154    -0.0018838041154969
 155     0.0001627848193870
 156     0.0190304015837372
 157    -0.0018597698659592
 158    -0.2166168715208920
 159    -0.1613801443722252
 160     0.0816944565550349
 161     0.1607779016158847
 162    -0.1456554223101349
 163     0.0030685530619789
 164    -0.0114761481400741
 165    -0.0138416345143357
 166     0.0066999727105558
 167    -0.3152987190509044
 168    -0.3485981742900517
 169    -0.0640120566459820
 170    -0.0064654326714852
 171     0.1939517720758900
 172    -0.0069197098687793
 173    -0.0019018429329651
 174     0.0077897200334198
 175    -0.0182834706587051
 176    -0.2895386185466103
 177    -0.1590048452095751
 178    -0.0544744178999737
 179    -0.1655063460646548
 180    -0.1413357505944463
 181     0.0028038930808080
 182     0.0115115569748778
 183    -0.0123350365805578
 184     0.0088719374587529
 Sym= 64A
 Ene= -0.092527
 Spin= Alpha
 Occup= 2.000000
  1    -0.0003549393504962
  2    -0.0006836370479336
  3     0.0008200377517094
  4    -0.0006064703942474
  5    -0.0007609118604461
  6     0.0000133784536266
  7     0.0000445498054544
  8    -0.0000741018531197
  9     0.0000164774381045
 10     0.0012587577744466
 11    -0.0013737445017781
 12    -0.0023393995908602
 13     0.0002051262954240
 14     0.0007984881673278
 15    -0.0000155252315665
 16     0.0000668611175808
 17     0.0000216192383258
 18     0.0000706888217405
 19     0.0022296961691290
 20    -0.0005985295685132
 21     0.0002442324197051
 22     0.0007166086262548
 23    -0.0004377159366306
 24     0.0000240691225157
 25    -0.0000516758877271
 26    -0.0000217307683505
 27    -0.0000635871067932
 28     0.0002193513838443
 29     0.0003367288109943
 30    -0.0005611377747891
 31     0.0012882270183142
 32     0.0000516850281102
 33     0.0000306521001488
 34     0.0000322352445633
 35     0.0000837541790986
 36     0.0000449118824832
 37    -0.0001934060072333
 38    -0.0000065891120106
 39     0.0001404813487476
 40     0.0000147007641107
 41    -0.0007542194655953
 42    -0.0000735158658128
 43     0.0007371694218742
 44     0.0000820783898795
 45     0.0007937994955430
 46     0.0001170790353626
 47    -0.0008034392234842
 48    -0.0001156850160454
 49     0.0010984427936209
 50     0.0001618078873599
 51    -0.0011427713536990
 52    -0.0001673485058270
 53    -0.0013261872454949
 54    -0.0002510195137046
 55     0.0013291989750103
 56     0.0002548072831896
 57    -0.0021642274299320
 58    -0.0002007173775627
 59     0.0021249316641176
 60     0.0002429678955436
 61     0.0008150344285637
 62     0.0002440684335791
 63    -0.0011221451464788
 64     0.0001533387012402
 65     0.0086389291544663
 66    -0.0001483058005329
 67    -0.0106079814859646
 68    -0.0001563458088020
 69    -0.0000124659068752
 70     0.0001456330704417
 71    -0.0000704590184726
 72     0.0000260036057726
 73    -0.0000011586557523
 74    -0.0009268178008391
 75     0.0001018645621587
 76    -0.0000281738763691
 77     0.0000905401003450
 78     0.0006670945791668
 79    -0.0004156546317743
 80     0.0000205700506662
 81    -0.0001006804689997
 82     0.0006654066765462
 83    -0.0004226121688489
 84     0.0000558650953239
 85    -0.0002075397800844
 86    -0.0009867909658853
 87     0.0004979024292481
 88    -0.0002255030838691
 89     0.0002162006935403
 90    -0.0009726134795739
 91     0.0005403155126522
 92     0.0001474127678750
 93     0.0000093540768580
 94     0.0010977162378387
 95    -0.0003450355922254
 96     0.0000360989259989
 97     0.0000117353185842
 98    -0.0016070070238120
 99     0.0005143012850399
 100    -0.0000219690757912
 101    -0.0000849517333710
 102     0.0013675512633923
 103     0.0004065553194238
 104     0.0003294962164273
 105     0.0000905289088207
 106     0.0013668527079999
 107     0.0004859840570962
 108    -0.0003049089884388
 109     0.0000256226494859
 110    -0.0015218354856148
 111    -0.0002211722226912
 112    -0.0001241925253031
 113    -0.0000135500858427
 114    -0.0015798094057995
 115    -0.0000151242407645
 116     0.0001050086936179
 117     0.0000269572334066
 118     0.0014029209515196
 119    -0.0008919696564618
 120     0.0000464356521859
 121    -0.0000491145027280
 122    -0.0010979049836975
 123    -0.0012547647340181
 124    -0.0001658254930235
 125     0.0006942185870554
 126     0.0018849537145988
 127     0.0006864353033700
 128     0.0012118297118323
 129    -0.0006748327951972
 130     0.0018166388666992
 131     0.0010755783640602
 132    -0.0009751336990892
 133    -0.0016034539674345
 134    -0.0020314072724016
 135    -0.0004037514037241
 136    -0.0023754682774903
 137     0.0013263240692224
 138    -0.0023385505826239
 139    -0.0003019057863161
 140     0.0019022869310657
 141    -0.0000335085664360
 142     0.0032331050664463
 143     0.0019713305404913
 144     0.0000675937266939
 145    -0.0004360385735408
 146    -0.0043733743723872
 147    -0.0028096686347803
 148    -0.0005537813790423
 149    -0.0106539454163381
 150     0.0081521991526261
 151     0.1008027091794338
 152     0.2024544647489964
 153    -0.0012109508045866
 154     0.0000751447247435
 155    -0.0124430323089499
 156     0.0028771889877819
 157     0.0001588811099964
 158    -0.5436954986475165
 159    -0.0509279885108932
 160    -0.1147355791140397
 161     0.1310349937630133
 162    -0.1146372304514394
 163    -0.0077633551092601
 164    -0.0004610739481825
 165     0.0046586385834704
 166     0.0103272168316907
 167    -0.0475201069672826
 168    -0.0542294276479817
 169     0.5897854239212598
 170     0.0718732012815778
 171     0.0291861813712204
 172    -0.0012480315706583
 173     0.0139707468433661
 174     0.0012583715010921
 175    -0.0028405039329656
 176     0.4650698860452415
 177     0.0023300452063830
 178    -0.1363875212787488
 179     0.0824495257002847
 180     0.0715845331707210
 181     0.0086044699350263
 182     0.0029816555083220
 183    -0.0088448373079705
 184    -0.0080345513535689
 Sym= 65A
 Ene= -0.092499
 Spin= Alpha
 Occup= 2.000000
  1     0.5355734754412474
  2    -0.0460261044316535
  3    -0.1173142952501746
  4    -0.1251709271893829
  5    -0.1085165579631087
  6    -0.0078062186956304
  7     0.0001599032281286
  8     0.0049585114854380
  9    -0.0101429135684749
 10     0.0378865757308642
 11    -0.0448390004931270
 12     0.5906132809231275
 13    -0.0714351887669560
 14     0.0232448834986796
 15    -0.0013084186097198
 16    -0.0139839469667441
 17     0.0011193240828564
 18     0.0022691944210554
 19    -0.4707570562331524
 20     0.0066356531481946
 21    -0.1346619421027548
 22    -0.0863282836563955
 23     0.0746528555860147
 24     0.0082631434957744
 25    -0.0026194163400468
 26    -0.0085186664234034
 27     0.0082215056534156
 28     0.0093730292716072
 29     0.0047475116528768
 30     0.1008584064851060
 31    -0.2026250581340773
 32    -0.0018702179613898
 33    -0.0001492451462031
 34     0.0122032083500755
 35     0.0021877330428106
 36    -0.0004519140393718
 37    -0.0099795576242262
 38    -0.0000976743553933
 39     0.0077937194024106
 40    -0.0002590138929290
 41     0.0001454222629105
 42     0.0002398333506115
 43    -0.0003832567478561
 44     0.0001009091923056
 45     0.0007953087389418
 46     0.0000722145601977
 47    -0.0008490065773076
 48    -0.0000411367081674
 49    -0.0000848132208736
 50     0.0000767666178682
 51     0.0001202781433613
 52    -0.0000633064069240
 53     0.0003205151418118
 54     0.0000215680435489
 55    -0.0004079249643250
 56    -0.0000425342487658
 57     0.0002042869144264
 58     0.0000723002832289
 59    -0.0000481909511171
 60    -0.0000609415773924
 61     0.0001065917288688
 62    -0.0000430370281418
 63    -0.0000176709554700
 64    -0.0001094050375664
 65     0.0008628966298979
 66     0.0000672068761468
 67     0.0009264689927072
 68     0.0001279355143019
 69    -0.0002842146044069
 70     0.0036964331282196
 71    -0.0025195892834689
 72     0.0005439696799601
 73     0.0000316526001884
 74    -0.0007432239493500
 75     0.0038356165978659
 76    -0.0001710063856568
 77     0.0010718309014713
 78     0.0016068154410617
 79     0.0015336108077384
 80    -0.0019221641767248
 81    -0.0012762103733910
 82     0.0013616279000726
 83     0.0014741510341690
 84     0.0021480472894702
 85    -0.0002721520837678
 86    -0.0005407790423539
 87    -0.0004704426363146
 88     0.0013668431816492
 89     0.0002630852052081
 90    -0.0006118484468894
 91    -0.0008638453580591
 92    -0.0014354835945085
 93    -0.0000523396740939
 94    -0.0016033505296793
 95    -0.0027549643088335
 96     0.0002454907696418
 97     0.0000099154160537
 98     0.0007317837012326
 99    -0.0030155921552091
 100     0.0000115048754163
 101     0.0003576588643662
 102    -0.0003207974473291
 103    -0.0005703935591957
 104    -0.0005191319120939
 105    -0.0003153154759446
 106    -0.0003854933558732
 107    -0.0008433401658938
 108     0.0005912061109631
 109    -0.0001347365216007
 110     0.0002505298062763
 111     0.0021396010098372
 112     0.0003390286380927
 113     0.0000940078670070
 114     0.0003106350396052
 115     0.0018537426440974
 116    -0.0004042144236407
 117    -0.0000029556366382
 118    -0.0000662983899531
 119     0.0031224891105732
 120     0.0000895683962636
 121     0.0000144555003658
 122    -0.0002069869123752
 123    -0.0002088057458537
 124    -0.0000216929043924
 125     0.0001504390935313
 126     0.0005803551718359
 127    -0.0011917942303429
 128    -0.0005454204573744
 129    -0.0001809897570062
 130     0.0005992346559098
 131    -0.0011532892133621
 132     0.0002117748699708
 133     0.0001075084379529
 134     0.0007313129149667
 135    -0.0011409062173854
 136     0.0004531686521980
 137    -0.0000210602197418
 138     0.0005412820283547
 139    -0.0011510749123108
 140    -0.0003010983105160
 141    -0.0000094736814783
 142    -0.0002264453429706
 143    -0.0002667764616496
 144    -0.0002134863420410
 145     0.0004140519265174
 146     0.0000049421341512
 147     0.0023894178945310
 148     0.0005523946173269
 149     0.0080274734988983
 150    -0.0050551971421638
 151     0.0014399890658565
 152     0.0029254095851822
 153    -0.0004904707805772
 154     0.0002602775508234
 155    -0.0001761570537774
 156    -0.0020276485686688
 157    -0.0000001128051526
 158     0.0226870463476675
 159     0.0173027617312093
 160    -0.0082661113121567
 161    -0.0165127637506745
 162     0.0141730624485501
 163    -0.0003897111970237
 164     0.0012982744876615
 165     0.0015983494872370
 166    -0.0007567869753176
 167     0.0334580347512689
 168     0.0386359691888741
 169     0.0074410101063927
 170     0.0009102951133879
 171    -0.0204562489993655
 172     0.0010013312510971
 173     0.0001890591124888
 174    -0.0009402796596646
 175     0.0019900305486715
 176     0.0347050208960296
 177     0.0177597740349313
 178     0.0050686062346055
 179     0.0187992655999562
 180     0.0161501733647301
 181    -0.0001895861604150
 182    -0.0012649363428745
 183     0.0014259704817925
 184    -0.0009863175317669
 Sym= 66A
 Ene= -0.092368
 Spin= Alpha
 Occup= 2.000000
  1     0.2104508586901908
  2    -0.1536741515668135
  3     0.0599555884747156
  4    -0.1382988695113665
  5    -0.1060488145145894
  6     0.0037375200485938
  7     0.0125676197879958
  8    -0.0160573012198393
  9    -0.0073791099835110
 10     0.2826685036599291
 11    -0.3628386547798885
 12    -0.0619156192819860
 13     0.0088028732161819
 14     0.1708352645679805
 15    -0.0141185823157308
 16     0.0012400304398332
 17     0.0102394447408900
 18     0.0178112020195335
 19     0.3499296337247998
 20    -0.1659774963724771
 21    -0.0300876349790100
 22     0.1758925034220828
 23    -0.1484384599134612
 24     0.0004909146556107
 25    -0.0119407803914157
 26    -0.0147228350039425
 27    -0.0089200822904371
 28     0.0950086564149437
 29     0.0011433949463934
 30    -0.0056188722357803
 31     0.0086607982787031
 32    -0.0112639130504181
 33    -0.0026008298644307
 34    -0.0025738749999330
 35     0.0174131522562960
 36    -0.0034143087950481
 37    -0.0097238002535523
 38    -0.0013964691594712
 39    -0.0167662049414590
 40    -0.0018324317160192
 41     0.0057495910441975
 42     0.0015243652572776
 43    -0.0056839920575658
 44    -0.0000230361176023
 45    -0.0041266263113263
 46     0.0003575151818436
 47     0.0025238044445338
 48    -0.0005672745895034
 49     0.0023936515016025
 50     0.0005011632298853
 51    -0.0015404337342425
 52    -0.0002305223452250
 53    -0.0007464503114202
 54    -0.0000533101266015
 55    -0.0000026816867315
 56    -0.0002080502084657
 57    -0.0042233791466235
 58     0.0003037657396330
 59     0.0057072791078729
 60    -0.0000966291032282
 61     0.0070302821294855
 62     0.0002293161964647
 63    -0.0072205308337235
 64    -0.0015508941743539
 65     0.0162647829011899
 66     0.0018454854033709
 67     0.0089481702192274
 68     0.0013074382783899
 69    -0.0030657839335437
 70    -0.0043899202966470
 71    -0.0304711688075329
 72     0.0057342856610283
 73     0.0007561533325612
 74     0.0140081899338358
 75     0.0282421263458510
 76    -0.0033389303970840
 77    -0.0010843233405265
 78     0.0081368710687462
 79     0.0319784312474562
 80    -0.0054610948802723
 81     0.0008988262719042
 82     0.0111847704254488
 83     0.0326856802101986
 84     0.0039352360151929
 85     0.0043399638076530
 86     0.0102121049291875
 87     0.0033557891417595
 88     0.0058133477505427
 89    -0.0043826428057463
 90     0.0101694910748215
 91     0.0044305937556344
 92    -0.0077512281818060
 93    -0.0001118652770155
 94    -0.0210297563527648
 95    -0.0203649200010172
 96     0.0006878384938246
 97    -0.0001575431333587
 98     0.0042427808671619
 99    -0.0615045523478891
 100     0.0022489240558548
 101     0.0022104097803838
 102    -0.0014141017274469
 103    -0.0267295805016097
 104    -0.0061615812245467
 105    -0.0011615176211835
 106    -0.0019541714135125
 107    -0.0295971651765001
 108     0.0063045281595691
 109     0.0016594808453761
 110    -0.0047224990134802
 111     0.0285508147229183
 112     0.0067350670466184
 113    -0.0027329181812389
 114    -0.0042373982405909
 115     0.0257788637678910
 116    -0.0063944836302758
 117     0.0002321695364829
 118     0.0074577390513019
 119     0.0611655229912147
 120     0.0020684030039427
 121     0.0000706868802553
 122    -0.0239930453301189
 123     0.0221190144890328
 124     0.0008828825208669
 125     0.0047655897143216
 126     0.0112214268995047
 127    -0.0014861363621059
 128    -0.0076897490559095
 129    -0.0046716882175620
 130     0.0112996554956485
 131    -0.0006724680409489
 132     0.0061633333433061
 133    -0.0012666811904574
 134     0.0097678571927539
 135    -0.0337681478705891
 136     0.0034233347976400
 137     0.0013165142369512
 138     0.0068582233003697
 139    -0.0331244467799187
 140    -0.0053639283019278
 141    -0.0008325755169938
 142     0.0169046505828554
 143    -0.0301756417521974
 144    -0.0033049081777438
 145     0.0025063817409145
 146    -0.0046898835559032
 147     0.0281930883639032
 148     0.0052811693901255
 149     0.0872249755155230
 150     0.0094405580551901
 151     0.0001939688289803
 152    -0.0029519804343068
 153     0.0133954525231286
 154     0.0024551494048303
 155    -0.0020730675110237
 156    -0.0147503259039304
 157    -0.0037865417756926
 158     0.2030780457734850
 159     0.1331894432544703
 160    -0.0423629338815805
 161    -0.1212813405222465
 162     0.0903770890540382
 163    -0.0028871282030698
 164     0.0109811144413405
 165     0.0140200997208411
 166    -0.0067613469589638
 167     0.2387408488031484
 168     0.3166275903631035
 169     0.0303345761799389
 170     0.0051193478568765
 171    -0.1437115451408458
 172     0.0135607341673678
 173     0.0004422456650075
 174    -0.0092938696394244
 175     0.0152900464395342
 176     0.2900067576831669
 177     0.1433625032585109
 178     0.0283099317305947
 179     0.1492068658975192
 180     0.1245253433679769
 181    -0.0004426589665500
 182    -0.0104798096444755
 183     0.0133823419922903
 184    -0.0074155168900547
 Sym= 67A
 Ene= -0.091165
 Spin= Alpha
 Occup= 2.000000
  1     0.0087531631359814
  2     0.0062799266628342
  3    -0.0280830563183858
  4     0.0168396192817785
  5     0.0151230325843603
  6    -0.0001744639666766
  7     0.0003411708980082
  8    -0.0013419662389876
  9     0.0009968947516683
 10     0.0001522591979565
 11    -0.0101677732724863
 12    -0.0031086028958353
 13     0.0048932899065332
 14    -0.0005275547933168
 15    -0.0015783653036498
 16     0.0014347927626334
 17     0.0006507173725570
 18     0.0002047943363154
 19     0.0062311893320760
 20    -0.0121312641915692
 21    -0.0251104823634628
 22     0.0226631258493595
 23    -0.0152742656255516
 24     0.0000175504687655
 25    -0.0003920291032347
 26     0.0001147600809902
 27    -0.0012620880457013
 28     0.0056043499835156
 29    -0.0080874934920562
 30    -0.0036982498673328
 31    -0.0051689245910551
 32    -0.0035701489499561
 33    -0.0002284627870775
 34    -0.0012484732951522
 35    -0.0000827214759113
 36    -0.0006884757979614
 37    -0.0013389714618152
 38    -0.0001789002564401
 39    -0.0007476368412532
 40    -0.0001471498856685
 41    -0.0005396529507568
 42    -0.0000248690919640
 43     0.0010892279883857
 44     0.0001006854204007
 45     0.0011521001508019
 46     0.0002460540017137
 47    -0.0010789682401145
 48    -0.0003017823977412
 49     0.0029829214601841
 50     0.0004607013081679
 51    -0.0019900746576515
 52    -0.0003540722797627
 53    -0.0023794893050428
 54    -0.0005837974589086
 55     0.0029337046433548
 56     0.0005061476667403
 57    -0.0053342898921170
 58    -0.0007599573151535
 59     0.0063480822190602
 60     0.0007065727817456
 61     0.0071520035117502
 62     0.0000491326570048
 63    -0.0045914824021646
 64     0.0001280890112165
 65     0.0106035733719161
 66     0.0014088654348944
 67    -0.0099369025300234
 68    -0.0013442229688577
 69    -0.0000769907142809
 70     0.0001539765828265
 71    -0.0016998500137515
 72     0.0001538105195486
 73     0.0001109263280310
 74     0.0009749879627257
 75     0.0059182490123339
 76    -0.0002886587321083
 77    -0.0000192491605049
 78     0.0021672994793226
 79     0.0028844479361585
 80    -0.0009333693770524
 81     0.0000626549806501
 82     0.0029085050909946
 83     0.0037530132875090
 84    -0.0000945376623117
 85     0.0000718565901283
 86    -0.0016244144595470
 87    -0.0011140505917616
 88     0.0006914166341849
 89    -0.0001445459699941
 90    -0.0015747435127970
 91     0.0000205243903697
 92    -0.0000870947664602
 93    -0.0001761763520414
 94    -0.0014765842799935
 95    -0.0058717815065405
 96    -0.0004385690368767
 97    -0.0001779591106315
 98    -0.0024302034765688
 99    -0.0051745338148303
 100     0.0007944652551611
 101     0.0000663478179541
 102     0.0023385751601273
 103    -0.0004322938274207
 104    -0.0012295538288740
 105    -0.0002734284387473
 106     0.0022759208853133
 107    -0.0007231532896627
 108    -0.0005044831744366
 109     0.0003305800643798
 110    -0.0042574723719224
 111     0.0040050246528392
 112     0.0016696528047671
 113    -0.0004365537718096
 114    -0.0034217952897417
 115     0.0040339972958172
 116    -0.0000012431353239
 117    -0.0005125276495288
 118     0.0039098399159833
 119     0.0046061492083832
 120    -0.0016577270908852
 121     0.0002291080051543
 122    -0.0062612038167260
 123    -0.0036578023806163
 124     0.0016772761434517
 125     0.0010816416034110
 126     0.0056282191411888
 127     0.0045820699070864
 128    -0.0016092464493172
 129    -0.0014303406218111
 130     0.0079145754839506
 131    -0.0024226063404961
 132    -0.0016249124584051
 133    -0.0011099882659469
 134    -0.0086772551174993
 135    -0.0010513488533024
 136     0.0004930525260927
 137     0.0020414760782949
 138    -0.0042285982634074
 139    -0.0082458076578116
 140     0.0028930965725084
 141    -0.0000281902360584
 142     0.0079547505032883
 143     0.0025923406478842
 144    -0.0008707852907400
 145    -0.0007702142932818
 146    -0.0105315014797960
 147    -0.0001921021116404
 148     0.0010676066854994
 149     0.0002796708196499
 150     0.0020311144247453
 151    -0.1002192690436329
 152     0.0257032789661671
 153    -0.0038492286593415
 154     0.0011106136891909
 155     0.0246006209074165
 156     0.0001727641102481
 157     0.0001148958399598
 158    -0.0654381246204397
 159     0.1606319152299975
 160    -0.5063710970619322
 161    -0.3532105543892715
 162     0.2609220821173094
 163    -0.0019293947514906
 164     0.0006050341561411
 165    -0.0145399265977943
 166    -0.0226451527233014
 167    -0.0023890065806883
 168    -0.0017126140094645
 169    -0.0765928128564292
 170    -0.0972627272312138
 171     0.0014088719710757
 172     0.0003251600858051
 173    -0.0290810404356578
 174    -0.0000448520817708
 175    -0.0003015737676736
 176     0.0627445783230094
 177    -0.1619172258850119
 178    -0.5114673836836261
 179    -0.3542703265852310
 180    -0.2645058235106730
 181     0.0022863455958834
 182     0.0005230657621791
 183     0.0144452318002226
 184     0.0223553940498597
 Sym= 68A
 Ene= -0.091142
 Spin= Alpha
 Occup= 2.000000
  1     0.0644476505498266
  2     0.1606565877675629
  3    -0.5056221985097481
  4     0.3532292305467766
  5     0.2601695931431605
  6    -0.0019684146242269
  7    -0.0006646961345503
  8    -0.0144693270807322
  9     0.0226602271176691
 10     0.0033899890441394
 11    -0.0004216386948464
 12    -0.0770881560724545
 13     0.0972349036370865
 14     0.0019512641270086
 15     0.0006007036358446
 16     0.0290785868962551
 17    -0.0001385468999051
 18     0.0003190116712952
 19    -0.0634487635552398
 20    -0.1617766844510289
 21    -0.5124368798201707
 22     0.3542005570553964
 23    -0.2647838533425615
 24     0.0022808351784629
 25    -0.0004727969025688
 26     0.0145337822980738
 27    -0.0223916451818487
 28    -0.0013166717614113
 29     0.0036908874529424
 30    -0.1003250502371585
 31    -0.0253910707424870
 32    -0.0028048151095173
 33     0.0009482209390102
 34    -0.0245551096047763
 35     0.0001663316851560
 36    -0.0000359485086487
 37    -0.0098388506392079
 38    -0.0013366009811367
 39     0.0108219653318459
 40     0.0014380718802142
 41    -0.0046078721677555
 42     0.0001277537865842
 43     0.0071837097831994
 44     0.0000606783904176
 45     0.0063247759083131
 46     0.0006872671533714
 47    -0.0053040214553945
 48    -0.0007366297869303
 49     0.0026118305989881
 50     0.0004612164068747
 51    -0.0021380189546241
 52    -0.0005471624867915
 53    -0.0017112195631186
 54    -0.0002913032961895
 55     0.0026644871418754
 56     0.0004076109788104
 57    -0.0004649477413999
 58    -0.0002181115601890
 59     0.0004398094047193
 60     0.0001678012446995
 61     0.0002877631847724
 62     0.0000903958134354
 63     0.0000022021539172
 64    -0.0000348269407572
 65    -0.0019252024983649
 66    -0.0003063525708817
 67    -0.0002988552495419
 68    -0.0000417271179309
 69    -0.0008580702746524
 70     0.0106457378362445
 71     0.0002456912878012
 72    -0.0010909270631042
 73    -0.0000782873663178
 74    -0.0081566344841105
 75     0.0020687762207362
 76     0.0009486282149661
 77     0.0020739238018769
 78     0.0040825886915381
 79    -0.0086205894963570
 80    -0.0028312711277504
 81    -0.0011199849570033
 82     0.0084634530401287
 83    -0.0016197253651438
 84    -0.0005201308634986
 85    -0.0014644058948874
 86    -0.0078718785086450
 87    -0.0023365831490241
 88     0.0015592031531026
 89     0.0010995405798512
 90    -0.0056360704162093
 91     0.0044922887896535
 92     0.0016866547445499
 93     0.0002551828633666
 94     0.0065149198764761
 95    -0.0031745026773719
 96    -0.0016670174650106
 97    -0.0005106300859359
 98    -0.0036366040836073
 99     0.0053609433364815
 100     0.0016065246605729
 101    -0.0004317675716862
 102     0.0031734473889459
 103     0.0042549543345436
 104     0.0001200346993946
 105     0.0003602750396570
 106     0.0040287061033275
 107     0.0042050133202686
 108    -0.0016636778841417
 109    -0.0003353474963156
 110    -0.0017847045676937
 111    -0.0011399802987204
 112     0.0003214094616568
 113     0.0001286185140002
 114    -0.0019321890182380
 115    -0.0008983720686084
 116     0.0012813896630524
 117    -0.0001312207563974
 118     0.0019553922510996
 119    -0.0058641566315445
 120    -0.0006356236031540
 121    -0.0002049067592258
 122     0.0023036123688067
 123    -0.0056870054623197
 124     0.0002699038280932
 125    -0.0002791670245411
 126     0.0009476508191836
 127    -0.0005527858540090
 128     0.0002673294931904
 129     0.0002438691141514
 130     0.0007493229953095
 131    -0.0009504659315727
 132    -0.0005585470435069
 133     0.0001892328348996
 134    -0.0020095338118267
 135     0.0040523028650628
 136     0.0000591250944836
 137    -0.0002521242331385
 138    -0.0017308588989555
 139     0.0039333175160185
 140     0.0006562239531225
 141     0.0001259707009300
 142    -0.0019625513370741
 143     0.0058761869122150
 144     0.0003975381759065
 145     0.0000074672604269
 146     0.0009947020268664
 147    -0.0017215820325155
 148    -0.0002756666859517
 149    -0.0058813964651901
 150    -0.0087534736826746
 151     0.0071142319420108
 152     0.0024885780480960
 153    -0.0033962336467619
 154    -0.0003643156409650
 155    -0.0013940759227172
 156    -0.0001305002058410
 157     0.0007161401782289
 158    -0.0019446470393345
 159    -0.0110251840532720
 160     0.0262352835424378
 161     0.0212569034387409
 162    -0.0128027973181992
 163     0.0000271380063900
 164    -0.0004201488018132
 165     0.0002000776023693
 166     0.0014403596867518
 167     0.0004188972493445
 168    -0.0103836789711042
 169     0.0052508617863971
 170     0.0055879706881029
 171    -0.0009239535375106
 172    -0.0017244869395246
 173     0.0016997458936837
 174     0.0006975485648976
 175    -0.0001659395726725
 176    -0.0130650218224532
 177     0.0052689387361034
 178     0.0300249533725216
 179     0.0153918928171383
 180     0.0133359097327905
 181    -0.0002329965002873
 182     0.0003496803761521
 183    -0.0014663012782399
 184    -0.0011472979140539
 Sym= 69A
 Ene= -0.089306
 Spin= Alpha
 Occup= 2.000000
  1    -0.1311339268361403
  2     0.0237599986722482
  3     0.0031179707214373
  4    -0.1117482488515003
  5     0.0885709568836818
  6     0.0077761055193786
  7     0.0097393157246470
  8    -0.0073673953070281
  9     0.0067657112229349
 10    -0.2466270748398968
 11    -0.3584009591249177
 12     0.0535048143785952
 13    -0.0308615700380290
 14    -0.1697014634888175
 15    -0.0742958167299689
 16    -0.0045617709052271
 17     0.0322807421400894
 18    -0.0095874758922804
 19     0.0065858005510363
 20    -0.0509164787011641
 21     0.0618873693569041
 22     0.1863139605231988
 23     0.0568907591498670
 24     0.0204139985700847
 25    -0.0127447853645216
 26    -0.0114943061228130
 27     0.0154892215380492
 28     0.0517114196470366
 29     0.0248228593498610
 30     0.0909666139247361
 31    -0.2179877974784917
 32    -0.1606627785759713
 33     0.0130038665667022
 34     0.0104899660794856
 35    -0.0202697622211963
 36    -0.0103417976037540
 37    -0.0081426147612458
 38    -0.0026150991831891
 39     0.0139229746098763
 40     0.0010671526243844
 41     0.0040265956771866
 42    -0.0001355299213388
 43     0.0011937902529525
 44    -0.0008301068878775
 45     0.0013384654029288
 46    -0.0002907818115741
 47     0.0031669515110402
 48     0.0004499426532747
 49    -0.0054683904749062
 50    -0.0003266958463880
 51     0.0078152741344822
 52     0.0003437419230693
 53     0.0077284147235215
 54     0.0002920132333696
 55    -0.0056909926592143
 56    -0.0003980824176050
 57     0.0032280152662085
 58     0.0005272156817896
 59     0.0026570486205531
 60    -0.0002616977414445
 61     0.0025119754075983
 62    -0.0009040127974442
 63     0.0037251208265815
 64    -0.0003792191745342
 65     0.0175544868944209
 66     0.0013714882908616
 67    -0.0071154234835042
 68    -0.0026899942284514
 69     0.0051945761353805
 70     0.0123936771592514
 71     0.0033584166023067
 72    -0.0086742718912720
 73    -0.0005579472543293
 74     0.0106683564606912
 75     0.0289857116126458
 76     0.0058173971664812
 77     0.0021582226781548
 78     0.0039354907616093
 79     0.0052687373496793
 80    -0.0079260174019727
 81    -0.0002353156456731
 82     0.0042646582569913
 83     0.0126957092222719
 84    -0.0031342633069980
 85    -0.0006036803025874
 86    -0.0057730079552207
 87    -0.0208825087339205
 88     0.0082914393278830
 89    -0.0011048482408992
 90    -0.0039809219017915
 91    -0.0156756712612343
 92     0.0028600646775174
 93    -0.0005235981322634
 94    -0.0156132229730754
 95    -0.0280960499085391
 96    -0.0020731820975079
 97    -0.0014540832804478
 98     0.0099915359478192
 99    -0.0023876486961102
 100     0.0037388752099428
 101     0.0029451187580340
 102    -0.0094628840922762
 103     0.0108222982016694
 104    -0.0040830848139853
 105    -0.0036515979917380
 106    -0.0080168428899016
 107     0.0104847379157312
 108    -0.0005031965415428
 109    -0.0034775548343897
 110     0.0074265049003518
 111     0.0145668720597561
 112     0.0011046923689557
 113     0.0027274707253216
 114     0.0094228627317827
 115     0.0134888987688391
 116     0.0034008205937207
 117    -0.0016742066368774
 118    -0.0094076503298418
 119     0.0050125553735047
 120    -0.0042082172174437
 121    -0.0005205208100175
 122     0.0130866560491438
 123    -0.0260379554592619
 124     0.0026889902734929
 125    -0.0007362110439999
 126     0.0052545535113212
 127    -0.0159966134533097
 128    -0.0047187419052189
 129    -0.0013998209962659
 130     0.0074295484844978
 131    -0.0216714541750056
 132    -0.0088917385299037
 133    -0.0003023352507737
 134    -0.0029774995553450
 135     0.0093477882648378
 136     0.0045220882965772
 137     0.0026460803212312
 138    -0.0034382309977482
 139     0.0007469642155953
 140     0.0086460838275628
 141    -0.0009875074798083
 142    -0.0087443014505172
 143     0.0261916991596180
 144    -0.0081828940057674
 145     0.0068036507993687
 146    -0.0137784741745057
 147     0.0056129393929211
 148     0.0118729473019087
 149    -0.0582116592920292
 150     0.0470449192066837
 151     0.0968156364203562
 152     0.2325303526751648
 153    -0.2033909358982691
 154     0.0187757537617787
 155    -0.0114702520603681
 156    -0.0250892665626341
 157     0.0120058266622627
 158     0.1603329840816633
 159     0.0261111065531088
 160     0.0003459190031386
 161     0.1460028126828191
 162     0.1063643132852041
 163     0.0115165163881655
 164    -0.0121864365748444
 165    -0.0090847190251068
 166    -0.0098974225412236
 167     0.3114997367343292
 168    -0.4453027921738939
 169     0.0561047339323362
 170     0.0331936614229439
 171    -0.2126537006930403
 172    -0.0917184527476343
 173     0.0046849670018178
 174     0.0401571459522805
 175     0.0121241291853723
 176     0.0140958576909279
 177    -0.0555535912709434
 178     0.0689401316016652
 179    -0.2283176313391141
 180     0.0742298879226953
 181     0.0255941312290089
 182     0.0155570558673536
 183    -0.0132846873691205
 184    -0.0191756269184569
 Sym= 70A
 Ene= -0.089168
 Spin= Alpha
 Occup= 2.000000
  1    -0.1212817870525295
  2    -0.0113797972487065
  3    -0.0348700770483377
  4    -0.2030377060398598
  5     0.0928830452582197
  6     0.0233603796649317
  7     0.0142871738847181
  8    -0.0094072791797219
  9     0.0172798097380554
 10    -0.3326743864127920
 11    -0.4534869251390385
 12    -0.0022613042910191
 13     0.0018844017297653
 14    -0.2229415368436840
 15    -0.0915620145001125
 16     0.0000296608453344
 17     0.0408833474739347
 18    -0.0136232552836595
 19    -0.1275865518087234
 20    -0.0063131709801507
 21     0.0258946262442262
 22     0.1977177409133135
 23     0.0925417126243256
 24     0.0221706149896155
 25    -0.0140020365491701
 26    -0.0093918938191500
 27     0.0164525217722966
 28     0.0375501876336226
 29     0.1057480394321076
 30    -0.0035353002978897
 31     0.0100276908739509
 32    -0.2068604997486757
 33     0.0255829225438685
 34    -0.0003092451887516
 35    -0.0254401721243042
 36    -0.0085697357234235
 37     0.0118932081057163
 38     0.0004976210377526
 39     0.0089479149315210
 40    -0.0000388786912575
 41     0.0013315217519018
 42    -0.0011169776014012
 43     0.0039509473825776
 44    -0.0005750355320354
 45     0.0029923511980231
 46    -0.0001355189176487
 47     0.0033863267142469
 48     0.0005467444031024
 49    -0.0014880559010831
 50    -0.0003949259427306
 51     0.0003636272452690
 52    -0.0001000620228574
 53     0.0006737639150735
 54     0.0000282297389910
 55     0.0008258877583319
 56     0.0004564950357935
 57    -0.0039758490061425
 58    -0.0005807998451265
 59    -0.0015193958529554
 60     0.0002072235144576
 61    -0.0027984947250448
 62     0.0004689950497148
 63    -0.0014170846687241
 64     0.0011005670199579
 65    -0.0030916208862652
 66     0.0007362855027880
 67    -0.0169904230732407
 68    -0.0015656601077536
 69     0.0081224162937636
 70    -0.0010923532413988
 71     0.0112739136026019
 72    -0.0151784272484130
 73    -0.0019137790421088
 74    -0.0013009340507733
 75    -0.0077596744451818
 76     0.0109723181540346
 77     0.0005700953923965
 78    -0.0037400550894467
 79    -0.0143264554494492
 80    -0.0022105902641370
 81     0.0018000944941881
 82    -0.0072316656643193
 83    -0.0094213456157716
 84    -0.0087240490008300
 85    -0.0024994543243974
 86    -0.0051863351613911
 87    -0.0063963463066290
 88     0.0027787161243120
 89     0.0003982454911333
 90    -0.0036548368149389
 91    -0.0044442484492597
 92     0.0091070290374000
 93    -0.0000587248415534
 94     0.0053540222095275
 95     0.0040714342709248
 96    -0.0027905416440921
 97    -0.0011350099306770
 98    -0.0012776050803777
 99     0.0267678790033096
 100     0.0026153032978587
 101    -0.0002907416013575
 102    -0.0011440875419489
 103     0.0097375797830241
 104     0.0023012924269859
 105     0.0002903330448453
 106     0.0013746775887200
 107     0.0177961119659605
 108    -0.0024597590186636
 109    -0.0011153050067764
 110     0.0023311797127433
 111    -0.0145239503452992
 112    -0.0023519334517431
 113     0.0009960651799923
 114     0.0001491758084463
 115    -0.0064871517352622
 116     0.0029979028921807
 117     0.0008322019010250
 118    -0.0027462321915371
 119    -0.0266132185670321
 120     0.0019582089103956
 121    -0.0000057959686919
 122     0.0080313421507613
 123    -0.0115966554786742
 124    -0.0025241091528018
 125    -0.0002620372900076
 126    -0.0013735760764528
 127     0.0009771847125410
 128     0.0088669918809826
 129     0.0020205311650400
 130    -0.0023942535909147
 131     0.0015763844470568
 132     0.0007465330830756
 133    -0.0025198239733774
 134    -0.0096898697986995
 135     0.0118449458251192
 136    -0.0089401960680771
 137     0.0005296040734982
 138    -0.0058861719826552
 139     0.0148229515534613
 140     0.0001780878900175
 141     0.0018441102802368
 142    -0.0020712318758391
 143     0.0156084071606365
 144     0.0099668506530575
 145    -0.0072127080865643
 146    -0.0070680530502177
 147    -0.0108702506640642
 148    -0.0136939487572321
 149     0.0260192551088514
 150    -0.1043779457545436
 151     0.0371891699513093
 152     0.0913332795387538
 153     0.1761194551208936
 154    -0.0234224643944656
 155    -0.0045392843035900
 156     0.0214694529246945
 157    -0.0064557502770673
 158    -0.0862541276696399
 159     0.0231832163008906
 160     0.0398675319271596
 161    -0.1891837848931382
 162    -0.0737872571825774
 163    -0.0234261291173397
 164     0.0126757462380157
 165     0.0081124675536966
 166     0.0167886204850229
 167    -0.2853094839640976
 168     0.3826755108194237
 169     0.0211457588222509
 170     0.0136298995019129
 171     0.1899283129204506
 172     0.0768324548524358
 173     0.0015084872412688
 174    -0.0345802721740827
 175    -0.0117712260685057
 176    -0.1419644974979550
 177    -0.0119311053492076
 178    -0.0082732277197136
 179     0.1534097837777679
 180    -0.0829824853571483
 181    -0.0168308159422154
 182    -0.0110756677574449
 183     0.0067544088298448
 184     0.0128188478811664
 Sym= 71A
 Ene= -0.089016
 Spin= Alpha
 Occup= 2.000000
  1     0.0503927836088207
  2    -0.0851074170259427
  3    -0.0776612019430415
  4    -0.1771910096354360
  5     0.0252847491919909
  6     0.0279716048361779
  7     0.0102046082318679
  8    -0.0054201180188812
  9     0.0162083838346588
 10    -0.1468893864210136
 11    -0.1878151312641055
 12    -0.0920137188735636
 13     0.0623747480468699
 14    -0.0985611211256043
 15    -0.0371734933553943
 16     0.0060815232491721
 17     0.0173192274264375
 18    -0.0062471624187608
 19    -0.1883948877570012
 20     0.0832999946318723
 21    -0.0511421839582728
 22     0.0011028183184361
 23     0.0563146928178194
 24    -0.0047497817056634
 25    -0.0020925635317930
 26    -0.0004460544773331
 27    -0.0006270017754511
 28     0.0066837908748907
 29     0.0678554979070418
 30    -0.1665047320194027
 31     0.4090272423790273
 32    -0.0807505697063826
 33     0.0126897109838632
 34    -0.0228583042912369
 35    -0.0107495554932222
 36    -0.0017080147823600
 37     0.0384791188225281
 38     0.0054133423154387
 39    -0.0246993173039042
 40    -0.0045190193701279
 41     0.0092015282768215
 42    -0.0004269223154915
 43    -0.0069718903095104
 44    -0.0007763384254855
 45    -0.0104677311590385
 46    -0.0013475805831849
 47     0.0134539443668603
 48     0.0014960614657565
 49    -0.0058820545568203
 50    -0.0016237492425725
 51     0.0065349646549647
 52     0.0015614661167974
 53     0.0069279618195060
 54     0.0017886578739293
 55    -0.0059914647488189
 56    -0.0017279649694510
 57     0.0174973357050241
 58     0.0017398444605291
 59    -0.0154863802588786
 60    -0.0017107359245349
 61    -0.0107894574931059
 62    -0.0009245199651767
 63     0.0124802607868582
 64    -0.0003577796171744
 65    -0.0400209848808814
 66    -0.0068892595857596
 67     0.0503896092017770
 68     0.0073427947774815
 69     0.0039355474783110
 70    -0.0332941696064284
 71     0.0075865602716221
 72    -0.0088760249046820
 73    -0.0013708726879059
 74     0.0105653700935581
 75    -0.0274439143214572
 76     0.0064248225453868
 77    -0.0062493711145680
 78    -0.0157482127755471
 79    -0.0028628976686837
 80     0.0068567989171154
 81     0.0071562045473507
 82    -0.0188147966478187
 83    -0.0041654099327977
 84    -0.0121473195901458
 85     0.0024472979511668
 86     0.0146352591914378
 87     0.0052730315423788
 88    -0.0025389140411899
 89    -0.0033472926397926
 90     0.0140540233288335
 91     0.0036941055063106
 92     0.0070825184572359
 93    -0.0003312017204861
 94     0.0000619735556291
 95     0.0247519549164570
 96    -0.0029366735286823
 97    -0.0006603807942671
 98     0.0064623371711027
 99     0.0070506294759331
 100     0.0016370912548916
 101    -0.0017225327701016
 102    -0.0071919529424854
 103    -0.0066406301450883
 104    -0.0005161488896580
 105     0.0013522505549825
 106    -0.0063511699477759
 107    -0.0057307386630661
 108    -0.0011709544409277
 109     0.0010354882732900
 110     0.0078625736110097
 111    -0.0117426037114605
 112     0.0004314959947164
 113    -0.0012625569804988
 114     0.0082624284810561
 115    -0.0119116497439820
 116     0.0012729817891043
 117    -0.0005388406231462
 118    -0.0075637346069798
 119    -0.0048211931851208
 120    -0.0015671885415472
 121    -0.0003598471326753
 122     0.0063051905774918
 123     0.0224463432983812
 124     0.0024806429684134
 125    -0.0051990628971017
 126    -0.0189471059900712
 127     0.0029774706830318
 128    -0.0069329965839946
 129     0.0045072462416314
 130    -0.0202042736109393
 131     0.0056470757934729
 132     0.0040682759812038
 133     0.0100747552695836
 134     0.0214602320533984
 135     0.0031952951368331
 136     0.0146054023973130
 137    -0.0092622268007283
 138     0.0185490077672307
 139     0.0065594761321493
 140    -0.0100174326511175
 141    -0.0010590682029574
 142    -0.0197275597928010
 143    -0.0251894181273838
 144    -0.0048589662725630
 145     0.0032346833326834
 146     0.0477677091291401
 147     0.0068863131812235
 148     0.0072020683987630
 149    -0.0055621072540012
 150     0.0523014309424177
 151    -0.2297640768018754
 152    -0.5649863070414751
 153    -0.0566152473690886
 154     0.0080271053588841
 155     0.0320865477384513
 156    -0.0089962747455038
 157     0.0011298527529273
 158    -0.1080115612416422
 159    -0.1186773600208894
 160    -0.1008101021763439
 161     0.1961499360865277
 162     0.0145500979862305
 163     0.0323046853654644
 164    -0.0108489155890721
 165    -0.0055683412598443
 166    -0.0174426224938266
 167     0.1180178954606716
 168    -0.1489863554260798
 169    -0.1251289146282624
 170    -0.0864710237216228
 171    -0.0811209259275963
 172    -0.0300855984191542
 173    -0.0080729462213927
 174     0.0140818903932556
 175     0.0051849043505522
 176     0.2204139232100516
 177     0.1171389010979838
 178    -0.0747764266591255
 179     0.0511221910730270
 180     0.0543747156382167
 181    -0.0138486082049336
 182    -0.0006282788539243
 183     0.0010024523795829
 184     0.0056081078476811
 Sym= 72A
 Ene= -0.088904
 Spin= Alpha
 Occup= 2.000000
  1    -0.1867489764553547
  2     0.1362795838341118
  3     0.1055050496621768
  4     0.1375171281563907
  5     0.0111742308824314
  6    -0.0252783542192854
  7    -0.0073391199688044
  8     0.0035758169661465
  9    -0.0106717522992915
 10    -0.0091438021228926
 11    -0.0095530149641070
 12     0.1338680227450603
 13    -0.0954897084706839
 14     0.0016166984531611
 15    -0.0001144317815179
 16    -0.0079190974348394
 17    -0.0000380469934833
 18    -0.0004390402128725
 19     0.1575144504083708
 20    -0.1299255882760780
 21     0.0856856688901402
 22     0.1444368878769597
 23    -0.0191737124405552
 24     0.0282681738000883
 25    -0.0060991665236815
 26    -0.0023610144784022
 27     0.0143911304220772
 28    -0.0122681129380784
 29     0.0380324626914467
 30     0.2467949386245945
 31    -0.6104611351894160
 32    -0.0237433252949364
 33     0.0074857346699528
 34     0.0359848760583351
 35     0.0004627681523564
 36     0.0003178646259624
 37    -0.0490859114266071
 38    -0.0075752022684606
 39     0.0537702539257197
 40     0.0087033034367832
 41    -0.0130538565062336
 42    -0.0000023274717318
 43     0.0129550021297417
 44     0.0006913650738081
 45     0.0175194018401770
 46     0.0013675928380659
 47    -0.0167156219877584
 48    -0.0011342526642448
 49     0.0011237277352578
 50     0.0006754762905358
 51    -0.0017286426866078
 52    -0.0009094443842747
 53     0.0005510832878629
 54     0.0004777307312341
 55    -0.0002012152260234
 56    -0.0002430751996436
 57     0.0124369333053846
 58     0.0007193177962962
 59    -0.0139720753435280
 60    -0.0009853296100060
 61    -0.0105164077843909
 62    -0.0005199074745639
 63     0.0101577031626394
 64     0.0001108660136160
 65    -0.0437241442496894
 66    -0.0070229572491671
 67     0.0354960652333559
 68     0.0055133504547946
 69     0.0004139087247670
 70     0.0547257219804601
 71     0.0009411639773979
 72     0.0000284952516064
 73    -0.0002216499794225
 74    -0.0315045651086031
 75    -0.0005085628531074
 76     0.0008302831035244
 77     0.0110593887033790
 78     0.0123209816839005
 79    -0.0286071423657035
 80    -0.0104215675010040
 81    -0.0114002564057370
 82     0.0128678636869485
 83    -0.0232960672996353
 84     0.0125251306651889
 85    -0.0068050608375760
 86    -0.0206978515521386
 87    -0.0023087870962581
 88     0.0041696067347156
 89     0.0068774549277554
 90    -0.0188670885300735
 91     0.0007380423171610
 92    -0.0028338473219009
 93     0.0001495913303540
 94     0.0198088463767233
 95     0.0016036416007217
 96    -0.0000093180742690
 97     0.0000475486561676
 98    -0.0037785106584367
 99     0.0358398708282437
 100    -0.0011503808703094
 101    -0.0010509172598941
 102     0.0045870960901844
 103     0.0193580830293752
 104     0.0020900003805508
 105     0.0005842796246541
 106     0.0050974573040338
 107     0.0186492044649747
 108    -0.0019777713366356
 109    -0.0012555133466588
 110     0.0039928766733152
 111    -0.0148845464691598
 112    -0.0023900223471614
 113     0.0018362282779135
 114     0.0033161645653016
 115    -0.0154550576239340
 116     0.0019806175944056
 117     0.0000889596666839
 118    -0.0029362335798898
 119    -0.0360608439556104
 120    -0.0006012691731465
 121    -0.0000237072816586
 122     0.0204506864198026
 123    -0.0111658761920329
 124    -0.0009794322604320
 125    -0.0057133649447056
 126    -0.0136764194281462
 127    -0.0036022758817543
 128    -0.0007539960903181
 129     0.0058396273784049
 130    -0.0152034969697462
 131    -0.0012254574211661
 132     0.0029586527346909
 133     0.0088982538890625
 134     0.0068048860838422
 135     0.0243917737645231
 136     0.0086388933790265
 137    -0.0087190354482567
 138     0.0071758496488271
 139     0.0289034416822952
 140    -0.0077865716756780
 141     0.0006555475168498
 142    -0.0283837469709853
 143     0.0109493004177853
 144     0.0026549771880936
 145    -0.0011994723646226
 146     0.0421264529533172
 147    -0.0021699073667657
 148    -0.0023618478943452
 149    -0.0117699165222025
 150    -0.0521142090406776
 151    -0.1831778407202919
 152    -0.4540327011187403
 153     0.0385849071716809
 154    -0.0108483968386631
 155     0.0272588007726168
 156     0.0012053119260736
 157     0.0003685244221416
 158    -0.1560977140369668
 159    -0.1042537972635668
 160    -0.0786014178305469
 161     0.0880912515460861
 162    -0.0126122576726867
 163     0.0164666102087750
 164    -0.0046595270122386
 165    -0.0022686616939408
 166    -0.0059019830528493
 167    -0.0357101355157632
 168     0.0412345760697514
 169    -0.0978646997229717
 170    -0.0715195163549385
 171     0.0159266640352305
 172     0.0059319953856297
 173    -0.0055377208791337
 174    -0.0029269770925806
 175    -0.0014709092579115
 176     0.0986809363932637
 177     0.0975211128944672
 178    -0.0637561130639151
 179     0.1265479960775525
 180     0.0064970427438652
 181    -0.0244999235776694
 182    -0.0056532456707005
 183     0.0017750868872231
 184     0.0127059732870063
 Sym= 73A
 Ene= -0.087441
 Spin= Alpha
 Occup= 2.000000
  1    -0.0551645095586476
  2    -0.1128408078045400
  3    -0.1130432686243976
  4    -0.1620749092725429
  5     0.0993321672734800
  6     0.0313003170185027
  7     0.0093975258868537
  8     0.0134338742975183
  9     0.0063549630161543
 10     0.0093762902757272
 11     0.0057284551467020
 12    -0.0001407613848945
 13     0.0353517652350649
 14     0.0016234800371026
 15    -0.0003815738988843
 16    -0.0138520921208672
 17    -0.0002731754984846
 18     0.0004384056174028
 19     0.0809124173209839
 20     0.1090601778388480
 21    -0.1070930087868329
 22    -0.1714362526096997
 23    -0.0969874918873039
 24    -0.0349085530104852
 25     0.0092174924172989
 26    -0.0146576292274331
 27    -0.0089427895496457
 28     0.0079708420026520
 29    -0.0278318432181877
 30     0.0692428666989228
 31    -0.0635537394215094
 32     0.0103560086702572
 33    -0.0050804001068144
 34    -0.0104614180018211
 35    -0.0003729959178858
 36    -0.0009890811173285
 37    -0.0068459993542456
 38    -0.0005727472680639
 39     0.0035993482270260
 40    -0.0002053754737718
 41    -0.0015751415427274
 42     0.0003082227323681
 43     0.0021595843199013
 44    -0.0005675789484832
 45     0.0022094450669538
 46     0.0002941542237605
 47    -0.0024349857322205
 48    -0.0003703616559159
 49     0.0010029978206457
 50     0.0004413324857935
 51    -0.0007913250553193
 52    -0.0004112517409964
 53    -0.0011910883946430
 54    -0.0006706646000260
 55     0.0012313583362625
 56     0.0006037981834804
 57    -0.0074098615266706
 58    -0.0008078886904429
 59     0.0073459311623390
 60     0.0007521984718941
 61     0.0066803539638099
 62    -0.0012774071204443
 63    -0.0057164948928713
 64     0.0007103972010200
 65     0.0168213178112192
 66     0.0010057161168030
 67    -0.0194907620956468
 68    -0.0016102991100768
 69    -0.0008054865708148
 70     0.0075164161151230
 71    -0.0004766487431487
 72     0.0012833174066619
 73     0.0002607084631906
 74     0.0016949588473517
 75     0.0146737088717241
 76    -0.0010091812069472
 77     0.0011647909077100
 78     0.0046347534502081
 79     0.0036410979494247
 80    -0.0021614861678077
 81    -0.0009051405768102
 82     0.0065346726723055
 83     0.0062167804355528
 84     0.0013626881443626
 85    -0.0002634248390299
 86    -0.0048077265016051
 87    -0.0064671623925216
 88     0.0016050488773211
 89     0.0001827552084066
 90    -0.0039038554336366
 91    -0.0038128877448892
 92    -0.0009281479333335
 93     0.0000800224771477
 94    -0.0042620821777242
 95    -0.0140776180437999
 96     0.0005485212441207
 97    -0.0000976133294521
 98    -0.0003565988450571
 99    -0.0046229254171290
 100     0.0002653553174043
 101     0.0011418341336817
 102     0.0004632692524204
 103     0.0032284390192336
 104    -0.0005793843338692
 105    -0.0011081861877754
 106     0.0004721003851621
 107     0.0036107035300824
 108     0.0003362123000961
 109    -0.0008527254712723
 110    -0.0019267125923403
 111     0.0073113551785734
 112     0.0001658260281343
 113     0.0007189002433752
 114    -0.0016432144616013
 115     0.0079961766215750
 116     0.0000666752152068
 117    -0.0001115763634708
 118     0.0012838645484532
 119     0.0040861419799053
 120    -0.0001513220979560
 121     0.0001870030821569
 122    -0.0018601950092838
 123    -0.0130850225685970
 124    -0.0003288272494648
 125     0.0019526572696285
 126     0.0083554763078593
 127    -0.0012112190208923
 128     0.0017057086927484
 129    -0.0019678087247431
 130     0.0109694808791536
 131    -0.0077153874515902
 132    -0.0028283591035661
 133    -0.0039091306781959
 134    -0.0118793614260645
 135     0.0011459743841189
 136    -0.0044337203948200
 137     0.0042477893614059
 138    -0.0080504631042739
 139    -0.0058657027157492
 140     0.0049735131918166
 141     0.0002695373807954
 142     0.0076237088744251
 143     0.0141886110086090
 144     0.0009891843316994
 145    -0.0007014527458258
 146    -0.0237684656059788
 147    -0.0013753567064411
 148    -0.0013470304133983
 149    -0.0041218790654920
 150    -0.0164821208481308
 151     0.1786314437992599
 152     0.1800887531847653
 153    -0.0018618162610882
 154    -0.0015617664293082
 155     0.0229942632197505
 156     0.0002193255574067
 157     0.0012156704021773
 158     0.1598795189959751
 159    -0.2616959615180486
 160    -0.2623092708423496
 161     0.3891736336241204
 162     0.2334065069121865
 163     0.0767752675528301
 164    -0.0216052939666141
 165     0.0336161358091506
 166    -0.0174753249969097
 167    -0.0086038194683328
 168     0.0072268726750512
 169     0.0028725212993587
 170    -0.0809757577140857
 171     0.0055319514692436
 172     0.0007656469025092
 173     0.0334269760548898
 174    -0.0007188307764431
 175    -0.0005406584918383
 176    -0.1814135280431240
 177     0.2607286516823015
 178    -0.2654699893741364
 179     0.4037046194292300
 180    -0.2375098085888245
 181    -0.0800048389786812
 182    -0.0225153764409930
 183    -0.0344383927260855
 184     0.0188056074121525
 Sym= 74A
 Ene= -0.087408
 Spin= Alpha
 Occup= 2.000000
  1    -0.1719405997882422
  2    -0.2575191610609688
  3    -0.2590685498284633
  4    -0.3890130655544359
  5     0.2316125628611079
  6     0.0776149355801222
  7     0.0213392877616446
  8     0.0342625920050143
  9     0.0181236543735665
 10     0.0043972495874909
 11     0.0059434880308032
 12     0.0049605201973484
 13     0.0789021353948692
 14     0.0060321009636914
 15     0.0018112431170469
 16    -0.0335169815665568
 17    -0.0009091844531290
 18     0.0002205421655503
 19     0.1755450562431063
 20     0.2592043642688244
 21    -0.2667418704040275
 22    -0.3984619918297571
 23    -0.2385969250586611
 24    -0.0779031167806872
 25     0.0224490069058965
 26    -0.0339682755326906
 27    -0.0178049776805996
 28    -0.0022313098305733
 29     0.0040063417257562
 30     0.1843539233626091
 31    -0.1933356794320535
 32    -0.0068790734208808
 33     0.0019683649272474
 34    -0.0219726115561775
 35     0.0006162081607420
 36    -0.0004471117909023
 37    -0.0206986645742613
 38    -0.0016618525353998
 39     0.0201180506588353
 40     0.0016641237077555
 41    -0.0064923034979677
 42     0.0006962644058860
 43     0.0072660526483575
 44    -0.0012362001665313
 45     0.0081099948370022
 46     0.0007566383081051
 47    -0.0080476248750636
 48    -0.0007669261726466
 49     0.0006641238242361
 50     0.0004135586610990
 51    -0.0007896150621374
 52    -0.0005227764540168
 53     0.0001536861835972
 54     0.0000911065349395
 55     0.0000897650933658
 56     0.0000089300447002
 57     0.0040316871529778
 58     0.0002938725730056
 59    -0.0042302792846152
 60    -0.0003399783052259
 61    -0.0036415649102752
 62     0.0004693235335035
 63     0.0035429085104618
 64    -0.0002725296976705
 65    -0.0116696059160123
 66    -0.0013178005940778
 67     0.0097880942308435
 68     0.0007614928854518
 69    -0.0002915663275320
 70     0.0261128328658315
 71    -0.0009928850862001
 72     0.0007617086287860
 73     0.0000791964266887
 74    -0.0122587502196972
 75     0.0057495176171009
 76    -0.0004360151982158
 77     0.0048339548841250
 78     0.0068207350786322
 79    -0.0115769059165972
 80    -0.0048139520231741
 81    -0.0046096038422567
 82     0.0101436897180531
 83    -0.0048373285581594
 84     0.0049506406685836
 85    -0.0025105182835488
 86    -0.0106824713103623
 87    -0.0044526622501169
 88     0.0023227592737351
 89     0.0025640125748137
 90    -0.0081154108327773
 91     0.0015874912053047
 92    -0.0014954186650820
 93     0.0001863523741626
 94     0.0066970765044166
 95    -0.0047814875737768
 96    -0.0000360985654786
 97    -0.0000575521689770
 98    -0.0013259777554104
 99     0.0104852668291273
 100    -0.0000912254325141
 101    -0.0000726631155303
 102     0.0017954537431115
 103     0.0082736079465985
 104     0.0004452256644856
 105    -0.0001175412667658
 106     0.0021489073744083
 107     0.0068687105563094
 108    -0.0005799801364396
 109    -0.0007632161050794
 110     0.0013736193396741
 111    -0.0020681969328072
 112    -0.0006686494113628
 113     0.0009266380985627
 114     0.0011352433622177
 115    -0.0033509524457468
 116     0.0007709135547041
 117    -0.0000391971248815
 118    -0.0009231902683691
 119    -0.0106920881640426
 120    -0.0002554042299903
 121    -0.0000707675054067
 122     0.0080497298268356
 123    -0.0071044291884980
 124    -0.0004264267592090
 125    -0.0017147065801425
 126    -0.0028881905689346
 127    -0.0042422893990169
 128    -0.0004235984487767
 129     0.0016043518924250
 130    -0.0041332129778116
 131    -0.0017090661073377
 132     0.0004662274416305
 133     0.0026318326747765
 134     0.0025482342677106
 135     0.0079679476053164
 136     0.0025715064170848
 137    -0.0026066200609328
 138     0.0014987798868016
 139     0.0110650218973598
 140    -0.0018472164844830
 141     0.0001176652961704
 142    -0.0101552188229800
 143     0.0068761650091612
 144     0.0004178587389252
 145    -0.0004342420302963
 146     0.0131053361297074
 147     0.0006677087087589
 148    -0.0004046777879513
 149    -0.0075587673613667
 150    -0.0238977525479871
 151    -0.0812286401385530
 152    -0.0908884687549110
 153     0.0151513434207254
 154    -0.0056385396039219
 155    -0.0082314734626404
 156    -0.0008021174376012
 157     0.0002998739517979
 158    -0.0827172444661652
 159     0.1027056457052135
 160     0.1030980149269035
 161    -0.1608238482574876
 162    -0.0933146797154138
 163    -0.0328437261663341
 164     0.0083810690228665
 165    -0.0147676379211384
 166     0.0085049827303244
 167    -0.0040894966683592
 168    -0.0000227920217455
 169    -0.0032319013192444
 170     0.0311086982694853
 171    -0.0036609223092286
 172    -0.0016144561824423
 173    -0.0139286701088182
 174     0.0004568597806094
 175    -0.0001176341345755
 176     0.0668959025537939
 177    -0.1070275742832028
 178     0.1143281407660384
 179    -0.1619930736634356
 180     0.1010205756059802
 181     0.0306420647190003
 182     0.0095104948667205
 183     0.0137117758195624
 184    -0.0062006947963008
 Sym= 75A
 Ene= -0.085876
 Spin= Alpha
 Occup= 2.000000
  1     0.0093872597310373
  2    -0.0425175723517807
  3    -0.1345117239060623
  4    -0.1109271534610629
  5     0.0948580206904275
  6     0.0222498503769191
  7     0.0211891199076290
  8    -0.0000054934818603
  9    -0.0167604450352379
 10     0.0687685840807721
 11    -0.0231500858674007
 12     0.0001860808295095
 13    -0.0007813887478241
 14    -0.1167523450923219
 15    -0.0062644963475934
 16     0.0000403193582358
 17     0.0049556554891579
 18    -0.0015878811798371
 19    -0.0030504567954545
 20    -0.0463582891550809
 21     0.1407214295585000
 22     0.1237984339684715
 23     0.1046552106109525
 24     0.0240173388301509
 25    -0.0217330435078289
 26     0.0017673793247396
 27    -0.0166615387098610
 28     0.0733313286797514
 29    -0.2482358937710773
 30    -0.0085780179745580
 31     0.0178765523139476
 32     0.4292232967423161
 33    -0.0779740259555307
 34    -0.0000104481627815
 35    -0.0135189757267395
 36     0.0152388594559331
 37     0.0263294184207945
 38     0.0009023862958606
 39     0.0074251603799330
 40    -0.0013316522691396
 41     0.0113856458722122
 42     0.0002549167684904
 43     0.0015515447146602
 44    -0.0003744315920527
 45    -0.0001307043051745
 46    -0.0006285198741004
 47     0.0126969747144924
 48     0.0015269053648766
 49    -0.0064164276070272
 50    -0.0006525736830900
 51     0.0138686812183814
 52     0.0010954598442510
 53     0.0136462917706386
 54     0.0010098594541133
 55    -0.0067128977033723
 56    -0.0007092383297852
 57     0.0137044109702713
 58     0.0016979686892227
 59     0.0028122932921388
 60    -0.0004685269018385
 61     0.0042856255057557
 62    -0.0002711332951000
 63     0.0119000170756831
 64     0.0001863411496762
 65     0.0158108113212961
 66    -0.0006171836971298
 67     0.0316756053139463
 68     0.0010592606486045
 69    -0.0080219319888708
 70    -0.0041638286431969
 71     0.0354271496013174
 72    -0.0227765281789073
 73    -0.0087873289242987
 74     0.0241995810816087
 75     0.0383349783327956
 76     0.0252420221728171
 77    -0.0017353323395067
 78     0.0079456823891643
 79     0.0266627682679076
 80    -0.0123398540036571
 81     0.0041485518271208
 82    -0.0077067487589203
 83     0.0062329567263040
 84    -0.0162787995863700
 85    -0.0008395231863133
 86     0.0034344303827334
 87    -0.0144413275900766
 88     0.0141921529483386
 89    -0.0050888250863098
 90    -0.0079156049880592
 91    -0.0354980294911752
 92     0.0146386086317623
 93    -0.0018378769907979
 94    -0.0237113997821770
 95    -0.0363111782848888
 96    -0.0087172827769748
 97    -0.0037686471904374
 98     0.0146092831441262
 99    -0.0026702827772271
 100     0.0111606770004604
 101     0.0032009686957702
 102    -0.0150577942572884
 103     0.0158174470101357
 104    -0.0099339937038647
 105    -0.0050348589994031
 106    -0.0116526695548278
 107     0.0124557987691778
 108    -0.0053643346859526
 109    -0.0045511976874134
 110     0.0106269691900948
 111     0.0208823712287580
 112     0.0059923195536899
 113     0.0032330801193188
 114     0.0152056602961500
 115     0.0152977118988523
 116     0.0092426834053899
 117    -0.0046662424237099
 118    -0.0140001626498262
 119     0.0058269452162118
 120    -0.0131400534721987
 121    -0.0018035648298800
 122     0.0208903067528522
 123    -0.0346757716940864
 124     0.0105017134791235
 125    -0.0054448183108974
 126     0.0117475955485300
 127    -0.0406392023643828
 128    -0.0193535183541539
 129    -0.0025263396899208
 130    -0.0031232949246020
 131    -0.0109616771738545
 132    -0.0171378789996581
 133     0.0042320890883558
 134     0.0114739230864845
 135    -0.0021307138423189
 136     0.0198162387242755
 137    -0.0008741978206502
 138    -0.0104350513082830
 139     0.0258713540659843
 140     0.0158851438647223
 141    -0.0119203189518998
 142    -0.0220434285390022
 143     0.0368466499631595
 144    -0.0342090573419450
 145    -0.0095322655557903
 146     0.0008376963017509
 147     0.0456375846020966
 148     0.0312233362457531
 149    -0.0881996535980447
 150    -0.2949540729876987
 151    -0.0028222430063904
 152    -0.0092058827430998
 153     0.5558481002981690
 154    -0.0953510665546236
 155    -0.0008930668940443
 156    -0.0165301285370955
 157    -0.0214020236460246
 158     0.0054685182211319
 159    -0.0563241200027451
 160    -0.1789762571985488
 161     0.1541005238000512
 162     0.1245198123828481
 163     0.0329565079068860
 164    -0.0279888972328471
 165     0.0015953696175487
 166     0.0203857200975048
 167    -0.0852810358104622
 168    -0.0305726335376150
 169     0.0004273434662464
 170     0.0011624498822946
 171    -0.1506518142724352
 172    -0.0052189221021760
 173     0.0002735959564746
 174     0.0058503275987591
 175     0.0024341791659302
 176     0.0111964313798087
 177    -0.0583878060775778
 178     0.1786437045682572
 179    -0.1617690893525906
 180     0.1313823935423728
 181     0.0339590063845156
 182     0.0283433639049801
 183     0.0025635134369741
 184     0.0207655935895768
 Sym= 76A
 Ene= -0.085706
 Spin= Alpha
 Occup= 2.000000
  1     0.0533264430035382
  2     0.0572888155566215
  3     0.1931828087628798
  4     0.1788238872365173
  5    -0.1240182001113291
  6    -0.0450075323268143
  7    -0.0298309645002538
  8    -0.0057598412799017
  9     0.0174334689827093
 10    -0.0818297564925949
 11     0.0272784615990216
 12    -0.0023680488163883
 13     0.0044195895460441
 14     0.1482008371512393
 15    -0.0052406636587416
 16     0.0011033401225736
 17    -0.0033549075400294
 18     0.0036945215377998
 19     0.0364719356549811
 20     0.0605021166732419
 21    -0.1762590693926699
 22    -0.1770324590570258
 23    -0.1275793004365746
 24    -0.0455107394767911
 25     0.0301468923713180
 26    -0.0045333791307580
 27     0.0188876853105411
 28    -0.0691605824624478
 29     0.2232383489600167
 30    -0.0171774291385001
 31     0.0239862977281244
 32    -0.5753498562153856
 33     0.0808177715315234
 34    -0.0039055748108152
 35     0.0136915667612789
 36    -0.0270587405186624
 37    -0.0285651068185155
 38    -0.0012421693060888
 39    -0.0304029077143913
 40    -0.0021913555474538
 41    -0.0049086169695704
 42     0.0002094066245674
 43    -0.0095536074070131
 44    -0.0002633197613850
 45    -0.0100127899886157
 46    -0.0004045523800631
 47    -0.0070337296574260
 48    -0.0009337574556323
 49     0.0019336093954837
 50     0.0002668383745790
 51    -0.0009837720674926
 52     0.0000674436157262
 53    -0.0024932094061345
 54    -0.0003526212989006
 55    -0.0001764264971100
 56    -0.0000883819546396
 57     0.0036414446729409
 58     0.0005129081441572
 59     0.0099304814990985
 60     0.0005661981896232
 61     0.0090536978647118
 62     0.0003689914930293
 63     0.0019228911608804
 64    -0.0002587005812777
 65     0.0280236751074239
 66     0.0024867814719715
 67     0.0210051584927761
 68     0.0009537805130359
 69     0.0071881573507004
 70    -0.0081962428308233
 71    -0.0456434991856053
 72     0.0364040747845054
 73     0.0140874120624613
 74     0.0024084805390396
 75    -0.0002279548629177
 76    -0.0394426737746258
 77    -0.0023881367773176
 78    -0.0120467145850015
 79    -0.0077014484497280
 80     0.0151276694969466
 81    -0.0017010900557794
 82     0.0188937141005206
 83     0.0339833080233170
 84     0.0165663005506859
 85     0.0064472492361344
 86    -0.0027565196965841
 87    -0.0160085604445930
 88    -0.0130785117801867
 89     0.0026507799000907
 90     0.0167509682739462
 91     0.0294826521176828
 92    -0.0203632237140900
 93     0.0002151931551363
 94    -0.0055002488022062
 95    -0.0008932868862502
 96     0.0079382681909530
 97     0.0040307954468515
 98     0.0001961606766411
 99    -0.0291552455478497
 100    -0.0091744930189884
 101    -0.0008509477917307
 102     0.0024651411513221
 103     0.0050564516287974
 104    -0.0011046710782579
 105    -0.0014247274082933
 106    -0.0022304221938643
 107    -0.0361505187597678
 108     0.0029801915505765
 109     0.0026110745705817
 110    -0.0050683899701304
 111     0.0320060929528809
 112     0.0016267587875970
 113     0.0000209856470173
 114    -0.0013966493434225
 115    -0.0089284358483009
 116    -0.0034204902712523
 117    -0.0030203605790262
 118     0.0039321807362287
 119     0.0287694321424121
 120    -0.0063326870989208
 121     0.0002256198111909
 122    -0.0112383230166782
 123     0.0097499097480493
 124     0.0056994495055223
 125    -0.0013356432213060
 126     0.0141257868194032
 127    -0.0192572704048519
 128    -0.0162666835837499
 129    -0.0060658404215883
 130    -0.0014961079311054
 131     0.0185970505095774
 132    -0.0094050824740319
 133     0.0006140510573355
 134     0.0160306493243688
 135    -0.0340507878167800
 136     0.0121191418270854
 137     0.0028167316689428
 138    -0.0096342328929475
 139     0.0002265370326447
 140     0.0118431459718931
 141    -0.0115147737850967
 142     0.0084565717093465
 143    -0.0092406050704433
 144    -0.0322398834636184
 145    -0.0049950816124379
 146    -0.0093631359044401
 147     0.0353824851998140
 148     0.0299699714548247
 149    -0.0497348984710725
 150    -0.1562835958809889
 151     0.0187088587915795
 152     0.0274150009467640
 153     0.4524060484218999
 154    -0.0591403756262976
 155    -0.0036900429495878
 156    -0.0099673457294211
 157    -0.0224939988025332
 158     0.0541513949516822
 159    -0.0459782110481539
 160    -0.1552794793336591
 161     0.1478168675017776
 162     0.0982264103076828
 163     0.0385332908146021
 164    -0.0238657976365153
 165     0.0056453865704284
 166     0.0127371961072690
 167    -0.0617816338799993
 168    -0.0215465696032833
 169     0.0017442204238890
 170     0.0035049167379268
 171    -0.1157594022363308
 172     0.0065239345573999
 173     0.0010301650722492
 174     0.0021456957330121
 175     0.0031799253741417
 176     0.0344450797981414
 177    -0.0467253093952703
 178     0.1366094498004117
 179    -0.1406807001686065
 180     0.0975006021622965
 181     0.0381388996036066
 182     0.0239009923892549
 183     0.0038474246965385
 184     0.0142250479028364
 Sym= 77A
 Ene= -0.082364
 Spin= Alpha
 Occup= 2.000000
  1    -0.1988166645858043
  2    -0.0461764583803642
  3    -0.1306848291182838
  4    -0.1377886240967965
  5    -0.0333305213653355
  6     0.1194110792680822
  7     0.0193822075709839
  8     0.0211510702114010
  9     0.0189044128435587
 10     0.0087747780367289
 11     0.0715007799365630
 12    -0.0032234092385480
 13    -0.0078665797516956
 14     0.0764266547655415
 15     0.1188573532877287
 16     0.0002070130804765
 17    -0.0297142238435258
 18    -0.0107541863866919
 19    -0.1587677538600299
 20    -0.0655522060622223
 21     0.0880512879996359
 22     0.1242447757286582
 23    -0.0077336505985246
 24     0.1217489899952776
 25    -0.0215065388012683
 26     0.0172237192844385
 27     0.0138464443389134
 28    -0.0180179957394110
 29     0.3572378995036293
 30     0.0492762398571837
 31    -0.0525393284775347
 32     0.1499426228260160
 33     0.1324550361024162
 34     0.0102525116985496
 35     0.0250946031424950
 36     0.0228554513808611
 37    -0.0119861873184202
 38     0.0031979690001271
 39     0.0470903262414582
 40     0.0128583384512769
 41    -0.0090385013767476
 42     0.0012130503865917
 43     0.0166693189136540
 44     0.0029271664917421
 45     0.0256571736806614
 46     0.0040312480702806
 47    -0.0126340459561775
 48    -0.0028305553655792
 49     0.0375599123319729
 50     0.0029635178327053
 51    -0.0304832914714544
 52    -0.0019621077284575
 53    -0.0303671527244501
 54    -0.0018420994700889
 55     0.0377680276046752
 56     0.0030755461257430
 57    -0.0124649479270504
 58    -0.0029584467665015
 59     0.0250209601629691
 60     0.0039300770770153
 61     0.0161727642222983
 62     0.0029539152853172
 63    -0.0086617089894026
 64     0.0012664571483383
 65     0.0456152958222803
 66     0.0127459287992103
 67    -0.0112137897449931
 68     0.0033711664561328
 69     0.0092636432912407
 70     0.0277176489797283
 71    -0.0430369712714215
 72    -0.0383649392222341
 73    -0.0132111151725371
 74    -0.0910403177674563
 75    -0.1511999671302310
 76     0.0355948481511388
 77     0.0097200280545212
 78     0.0157802527473667
 79    -0.0278989574290508
 80    -0.0188162675903967
 81    -0.0109241609798975
 82    -0.0358685310742924
 83    -0.1149923676958288
 84     0.0040491704127685
 85    -0.0096407441974776
 86     0.0378327167697658
 87     0.1486490171108784
 88     0.0034113906192267
 89     0.0040168520264917
 90    -0.0028479427936327
 91     0.0573559251603859
 92     0.0076816561155128
 93    -0.0029357495919553
 94     0.0891593010396739
 95     0.1524970931105671
 96    -0.0182424023136818
 97    -0.0024414994789901
 98    -0.0485511783306153
 99     0.0006281019812836
 100     0.0113938742128407
 101    -0.0163589218997521
 102     0.0439186745043516
 103    -0.0649949799564636
 104    -0.0007803872428408
 105     0.0157797466429412
 106     0.0452921947065435
 107    -0.0714880919461443
 108    -0.0158575264005832
 109     0.0160211385378713
 110    -0.0451449125485971
 111    -0.0667004140613465
 112     0.0159536051473784
 113    -0.0161532753755410
 114    -0.0445022206780847
 115    -0.0728420426660528
 116     0.0011532304480155
 117    -0.0024822235754660
 118     0.0484870759551581
 119    -0.0028882697313942
 120    -0.0111348106590053
 121    -0.0029712861829847
 122    -0.0878144026599627
 123     0.1517895196789470
 124     0.0179778322717326
 125     0.0035652323096356
 126     0.0042917327862833
 127     0.0531962052125529
 128    -0.0072663104981959
 129    -0.0094644783013806
 130    -0.0404708224153848
 131     0.1533792850792936
 132    -0.0028618887827359
 133    -0.0104949302462696
 134     0.0375495668737205
 135    -0.1181163058240947
 136    -0.0044751636270890
 137     0.0094594570489638
 138    -0.0176520760522764
 139    -0.0217975672233603
 140     0.0188250077657911
 141    -0.0134319538732445
 142     0.0899074211027127
 143    -0.1506659505853951
 144    -0.0356602820864900
 145     0.0094477459736415
 146    -0.0262608377403873
 147    -0.0442215662066835
 148     0.0381962103475075
 149     0.0165471323621499
 150     0.3582879371582798
 151     0.0504009330955649
 152     0.0528834602259686
 153     0.1490185503087188
 154     0.1340001095590611
 155    -0.0104821241001113
 156     0.0253638781548105
 157    -0.0227887552183549
 158     0.1998521081758285
 159    -0.0470601142182242
 160    -0.1324733852212809
 161     0.1379591674867227
 162    -0.0348046898695517
 163     0.1204443102681491
 164    -0.0195061762623978
 165     0.0211833576546565
 166    -0.0192125236458997
 167    -0.0084236333447427
 168     0.0722856953732712
 169    -0.0030689652994415
 170     0.0084842632260607
 171     0.0783053879930834
 172     0.1200642645447727
 173    -0.0000407014054891
 174    -0.0300850210237456
 175     0.0109499088646757
 176     0.1588423918115896
 177    -0.0663269700851106
 178     0.0883015903689687
 179    -0.1245970964698837
 180    -0.0078315845642344
 181     0.1228660596850562
 182     0.0216739650788184
 183     0.0172831508343461
 184    -0.0139474436902926
 Sym= 78A
 Ene= -0.081389
 Spin= Alpha
 Occup= 2.000000
  1    -0.0130138175132639
  2    -0.0040152736756147
  3    -0.0112762796152090
  4     0.0129303395159295
  5    -0.0328927424931032
  6    -0.0010540418303679
  7    -0.0018704119507028
  8    -0.0005891417351285
  9     0.0057935171411781
 10    -0.0206513176100052
 11     0.0062051256263563
 12    -0.0024922737788775
 13    -0.0050832202488565
 14     0.0364222609386654
 15     0.0018411062928274
 16    -0.0008686587993800
 17    -0.0036146496402924
 18    -0.0039387343532166
 19    -0.0036503921575438
 20    -0.0066430509185215
 21    -0.0110417196465128
 22    -0.0130723404389569
 23    -0.0138724728724193
 24    -0.0005867667272321
 25     0.0009051613461478
 26    -0.0006778299503797
 27     0.0018526995450458
 28     0.0157017231165577
 29     0.0406673584407672
 30     0.0152474973187789
 31     0.0043909300546286
 32    -0.0323967855971685
 33     0.0138634882735582
 34     0.0058521623634143
 35     0.0051539421251036
 36     0.0053620464393347
 37    -0.0062612415612874
 38    -0.0002934929237564
 39    -0.0058292653891108
 40     0.0017402671483350
 41    -0.0019441179038839
 42     0.0011373873849250
 43    -0.0034024405305870
 44     0.0012514836196693
 45    -0.0109753008777814
 46    -0.0052170984487140
 47    -0.0145756494273957
 48    -0.0070379913249971
 49     0.0112944331106487
 50     0.0061989088607317
 51     0.0074177234409180
 52     0.0050281940514551
 53    -0.0086547930213604
 54    -0.0051389103549920
 55    -0.0098580201787339
 56    -0.0059765775185083
 57     0.0139897087387240
 58     0.0069103751880613
 59     0.0116580266021598
 60     0.0053483797580996
 61     0.0039395581169414
 62    -0.0011509931154379
 63     0.0016021572945389
 64    -0.0011162226054616
 65     0.0064197067501629
 66    -0.0014983064519249
 67     0.0057677584361298
 68     0.0003507813354770
 69     0.0077943666927427
 70     0.0021165200541918
 71    -0.0089517652786309
 72     0.0117126058858759
 73    -0.0082831525380594
 74     0.0010552317596176
 75     0.0064613174189505
 76    -0.0139598871595128
 77     0.0007512031947888
 78     0.0886613122337277
 79     0.2268387287537090
 80     0.0008618225205289
 81     0.0021306609109496
 82    -0.0862185974991875
 83    -0.2111192154748853
 84     0.0265358631546897
 85    -0.0088601740823816
 86     0.1036952170722356
 87     0.2168814484200491
 88    -0.0328913860453300
 89    -0.0107983826895749
 90    -0.1065716553431945
 91    -0.2105870095591781
 92    -0.0167686831307841
 93     0.0011794809587538
 94    -0.0015585579765240
 95    -0.0017942142236243
 96     0.0090030724583746
 97    -0.0027948502201552
 98    -0.0022408516413224
 99    -0.0149380198174539
 100    -0.0193153955346248
 101     0.0057922456965487
 102     0.0269657965266509
 103    -0.3727015911693766
 104    -0.0088282337713500
 105     0.0102130483895734
 106    -0.0128511145376138
 107     0.3585280204100512
 108    -0.0105012637121446
 109    -0.0097632304549540
 110    -0.0153328160567918
 111    -0.3595833822337060
 112    -0.0097951695654346
 113    -0.0062909888955809
 114     0.0260515203419372
 115     0.3715032731547244
 116    -0.0092331857696286
 117     0.0028040101515879
 118    -0.0005141112627352
 119     0.0148082647484721
 120    -0.0195271758524496
 121    -0.0011840571082919
 122    -0.0033253602725203
 123     0.0041534396484858
 124     0.0093312388880616
 125     0.0111314375415311
 126    -0.1041940642323012
 127     0.2081244994811754
 128    -0.0168309214169609
 129     0.0084922754450949
 130     0.1013561746553978
 131    -0.2103006779542393
 132    -0.0327343869779827
 133    -0.0024850710446429
 134    -0.0840353023429582
 135     0.2056068481254778
 136     0.0264996963087607
 137    -0.0005315078537142
 138     0.0862844475945099
 139    -0.2231657485112750
 140     0.0012617900549504
 141     0.0080523571475073
 142     0.0025825530553323
 143    -0.0083874461015380
 144    -0.0144268232350418
 145    -0.0076231114987042
 146     0.0016233304099989
 147     0.0077654011719988
 148     0.0122755971522683
 149     0.0154572723851517
 150    -0.0336124536536164
 151    -0.0147071777830079
 152     0.0050720822249587
 153     0.0326316356521000
 154    -0.0105992594433537
 155     0.0057216575828023
 156    -0.0046054213817549
 157     0.0049601543285509
 158    -0.0097642648518384
 159     0.0030343690530366
 160     0.0092548645217154
 161     0.0149746944313264
 162     0.0318963492629682
 163     0.0034444961033746
 164    -0.0021965021059122
 165     0.0009562879652942
 166     0.0053314064746859
 167    -0.0202651784292954
 168    -0.0046823616719129
 169     0.0023353816068041
 170    -0.0051725273123119
 171    -0.0340302308891858
 172     0.0006392058578011
 173    -0.0009174194784138
 174     0.0029587046828925
 175    -0.0037085239200277
 176    -0.0008420187164233
 177     0.0053580556937801
 178     0.0126274976984911
 179    -0.0146880513673153
 180     0.0129026252528735
 181     0.0029816788396432
 182     0.0012511399643211
 183     0.0009622842016388
 184     0.0014367802595265
 Sym= 79A
 Ene= -0.080774
 Spin= Alpha
 Occup= 2.000000
  1     0.0201746154986606
  2     0.0112445428582427
  3     0.0057201997219310
  4     0.0302109782947948
  5    -0.0233166549462441
  6    -0.0255262023649687
  7    -0.0052002265218680
  8    -0.0037249246932971
  9     0.0026447237502065
 10    -0.0116647930068116
 11    -0.0146559175035113
 12    -0.0030848658261099
 13    -0.0103333520696999
 14    -0.0060573352070841
 15    -0.0242334293408612
 16    -0.0020261172957692
 17     0.0045888394800120
 18     0.0017904781192995
 19     0.0332028594608184
 20     0.0103898291130427
 21    -0.0408654874646931
 22    -0.0267318493863584
 23     0.0102059782346098
 24    -0.0249781876213345
 25     0.0037331907587548
 26    -0.0030640280863928
 27    -0.0039794378404529
 28     0.0021226254469171
 29    -0.0418616805992236
 30     0.0229675792063003
 31     0.0141908229492673
 32    -0.0478558793559209
 33    -0.0135998371961493
 34     0.0089956648815961
 35    -0.0035836843897068
 36     0.0052665596094850
 37     0.0002988929184259
 38    -0.0012988310338109
 39    -0.0100388805631579
 40     0.0001607780150932
 41     0.0061982433540812
 42     0.0010541685049927
 43     0.0007597787478741
 44     0.0009757115352643
 45    -0.0060502553399129
 46    -0.0016318685054671
 47    -0.0017397763603568
 48    -0.0008450599768006
 49     0.0054867909117417
 50     0.0045033522855499
 51     0.0116278315368562
 52     0.0043337002765721
 53     0.0117781417452328
 54     0.0044026202190305
 55     0.0055928975894766
 56     0.0045631142187041
 57    -0.0019843696824944
 58    -0.0009537784967631
 59    -0.0061026047003324
 60    -0.0017110024764761
 61     0.0007108221840457
 62     0.0009897219939788
 63     0.0060682074180445
 64     0.0010595474684356
 65    -0.0097906307781907
 66     0.0002328461118470
 67     0.0001274491182004
 68    -0.0013130185365233
 69    -0.0002163586226098
 70     0.0000047841385661
 71     0.0059097804869682
 72     0.0072211974938045
 73    -0.0032806910864536
 74     0.0163891554861166
 75     0.0287694535123751
 76    -0.0098719908439702
 77    -0.0062139958599440
 78     0.1292103859486911
 79     0.3353677884867982
 80    -0.0161107624691211
 81    -0.0017576882548159
 82    -0.1304937358670073
 83    -0.3066542608864201
 84     0.0124807895451717
 85    -0.0023620014159474
 86     0.1404401408387486
 87     0.2996692721674346
 88    -0.0244907694873061
 89    -0.0023248910175699
 90    -0.1521922106394942
 91    -0.3283710396506131
 92     0.0070865473121591
 93    -0.0035250532718860
 94    -0.0123347778461816
 95    -0.0240051757591691
 96    -0.0122696926957803
 97     0.0062234721939119
 98     0.0049180803385434
 99     0.0000162858199237
 100     0.0091710366957499
 101     0.0066867027622047
 102     0.0012352998538534
 103     0.0113989498314842
 104    -0.0205419570221256
 105     0.0015976021174006
 106    -0.0100704019531422
 107     0.0086914884670739
 108    -0.0182709792307741
 109     0.0017118582697663
 110     0.0103492208647650
 111     0.0150835544847485
 112     0.0184998965977259
 113     0.0066938085236361
 114    -0.0015944627120295
 115     0.0044800527956896
 116     0.0205844049738124
 117     0.0061818941799038
 118    -0.0048630885567057
 119    -0.0005790110697935
 120    -0.0088608148320531
 121    -0.0035290718703720
 122     0.0122394201285711
 123    -0.0240287238223606
 124     0.0120646720158798
 125    -0.0028388456014831
 126     0.1523410520308263
 127    -0.3291654741404129
 128    -0.0069019289616638
 129    -0.0023510312249195
 130    -0.1405324776781314
 131     0.3008481577419044
 132     0.0249773033599208
 133    -0.0016071280174918
 134     0.1303714918980087
 135    -0.3077902388989966
 136    -0.0132828884836990
 137    -0.0062257114538998
 138    -0.1293095596449559
 139     0.3361683593208333
 140     0.0162786384895783
 141    -0.0034441628181072
 142    -0.0158300709395588
 143     0.0282172373114443
 144     0.0099726801565413
 145    -0.0000258038269238
 146    -0.0002850997151670
 147     0.0056467783497298
 148    -0.0072618226078618
 149    -0.0022470067671294
 150    -0.0401357744318935
 151     0.0235386948648794
 152    -0.0143777360852065
 153    -0.0463629382721771
 154    -0.0132326476012402
 155    -0.0091933007198596
 156    -0.0034410941846193
 157    -0.0052737950962271
 158    -0.0191389744018080
 159     0.0109275047226315
 160     0.0046820362927904
 161    -0.0296435929953175
 162    -0.0238545979507030
 163    -0.0249611348061167
 164     0.0051228487310566
 165    -0.0036418642313837
 166    -0.0027640961348952
 167     0.0115730351072574
 168    -0.0141120585505068
 169    -0.0031667500870515
 170     0.0105228302731374
 171    -0.0053362977035245
 172    -0.0236620927580208
 173     0.0020464965739309
 174     0.0044109484887181
 175    -0.0016659036733476
 176    -0.0324682966828728
 177     0.0099323542771195
 178    -0.0405060193287120
 179     0.0261285389082811
 180     0.0103903561541431
 181    -0.0244062365855449
 182    -0.0036162516720203
 183    -0.0029825342956602
 184     0.0039990987863024
 Sym= 80A
 Ene= -0.080395
 Spin= Alpha
 Occup= 2.000000
  1    -0.0170063152449820
  2    -0.0046760426725158
  3    -0.0223799891348799
  4    -0.0045262214858306
  5    -0.0220110852237683
  6     0.0124340362907394
  7     0.0010344863030517
  8     0.0012730411579350
  9     0.0058650545440638
 10    -0.0038268082810212
 11     0.0075617442806170
 12    -0.0024259968190675
 13    -0.0090415716370422
 14     0.0135674301043539
 15     0.0134192730706642
 16    -0.0015451801047479
 17    -0.0037316205269006
 18    -0.0003960857044812
 19    -0.0040208866317804
 20    -0.0071676798874717
 21    -0.0074850633278202
 22     0.0067055266520489
 23     0.0074820449761211
 24     0.0129930415947189
 25    -0.0024213108422202
 26     0.0015898119892698
 27     0.0002696798930567
 28     0.0048382602425881
 29     0.0287780262071409
 30     0.0220133418787925
 31     0.0080319054128079
 32    -0.0170710161385187
 33     0.0235969192344117
 34     0.0074383632689411
 35     0.0014829538098320
 36     0.0046726901234890
 37    -0.0002127160047168
 38    -0.0000343997871423
 39    -0.0032102588563194
 40     0.0019049106043738
 41     0.0052202677286069
 42     0.0007283857527651
 43    -0.0004104302373920
 44     0.0002907391715624
 45     0.0015023669860304
 46     0.0033266927814782
 47     0.0060770032364877
 48     0.0046184853358590
 49    -0.0007155742287187
 50     0.0021239049425547
 51     0.0008011741099589
 52     0.0026651574804026
 53    -0.0004594716992819
 54    -0.0026458933369333
 55     0.0003844537831810
 56    -0.0022225238848692
 57    -0.0058679876554704
 58    -0.0045927628350690
 59    -0.0016112913112423
 60    -0.0033586474912463
 61     0.0003154455987589
 62    -0.0003072097726696
 63    -0.0050380169614574
 64    -0.0006950255638196
 65     0.0033534996680865
 66    -0.0018714902380395
 67     0.0001557382998859
 68     0.0000599841698957
 69    -0.0013183820237039
 70     0.0017795041326924
 71    -0.0068165227138276
 72    -0.0051407798151321
 73     0.0002943283917231
 74     0.0040301851545151
 75     0.0027142171068805
 76     0.0043414382317240
 77    -0.0040874400785967
 78     0.0978884610485582
 79     0.2445316601437461
 80    -0.0182003414894546
 81    -0.0036529673133011
 82    -0.1022953403290824
 83    -0.2317500023744739
 84     0.0047891113180774
 85     0.0026338555002623
 86     0.1027491355672876
 87     0.2401230955383360
 88    -0.0096194575403847
 89     0.0039978188213706
 90    -0.0961414405994550
 91    -0.2326867657797103
 92     0.0141112950999262
 93     0.0020752370583430
 94    -0.0018487806791068
 95     0.0020278504660321
 96    -0.0027238562515273
 97     0.0011227272430791
 98     0.0024907764868989
 99    -0.0105799971120507
 100     0.0042516231268057
 101     0.0052554250895716
 102    -0.0088716450588783
 103     0.3310314277573351
 104     0.0010391485997218
 105     0.0007161453913337
 106    -0.0025777663085983
 107    -0.3420699663584852
 108     0.0067644254004262
 109    -0.0008566772651889
 110    -0.0014478611918096
 111     0.3416070216587794
 112     0.0064715042557902
 113    -0.0050845626683619
 114    -0.0091441183473019
 115    -0.3314493725575374
 116     0.0014779621204619
 117    -0.0011809924794813
 118     0.0021534904148637
 119     0.0106850822531038
 120     0.0041162626765683
 121    -0.0021056180180098
 122    -0.0020746122355600
 123    -0.0009005925259895
 124    -0.0025463730074672
 125    -0.0037496539126742
 126    -0.0972303218583397
 127     0.2352154765153053
 128     0.0142083629606298
 129    -0.0027411583464576
 130     0.1028990440503916
 131    -0.2418834989212170
 132    -0.0100214106424492
 133     0.0035064278287116
 134    -0.1026056762679031
 135     0.2337208934316231
 136     0.0052667974750476
 137     0.0042374353300844
 138     0.0986975037170498
 139    -0.2469137521949655
 140    -0.0183958984203412
 141    -0.0003053361380041
 142     0.0040565301823405
 143    -0.0033132693577590
 144     0.0041401737927389
 145     0.0013068531663744
 146     0.0017057345171819
 147     0.0066130500656719
 148    -0.0049330672736060
 149     0.0046835571869494
 150    -0.0271714073008601
 151    -0.0229029644611804
 152     0.0081614257810744
 153     0.0168295698879744
 154    -0.0228440964330603
 155     0.0076788465007891
 156    -0.0013342383755442
 157     0.0046059121892486
 158    -0.0166430042878667
 159     0.0044360299254651
 160     0.0225533661525510
 161    -0.0041044876369977
 162     0.0223229330803857
 163    -0.0119017404873039
 164     0.0009444752994614
 165    -0.0011992541177803
 166     0.0058545588916252
 167    -0.0036292784533935
 168    -0.0072670566895441
 169     0.0024472046557831
 170    -0.0094647473289303
 171    -0.0130086045183448
 172    -0.0128798264125521
 173    -0.0016248561456171
 174     0.0035988573969845
 175    -0.0003485967021783
 176    -0.0031108657741847
 177     0.0069325887218889
 178     0.0083747329870840
 179     0.0064368525200639
 180    -0.0082822084156605
 181    -0.0124824686932685
 182    -0.0023772775076646
 183    -0.0015354189001303
 184     0.0000617887769696
 Sym= 81A
 Ene= -0.078861
 Spin= Alpha
 Occup= 2.000000
  1    -0.1332133811601961
  2    -0.1079217041177816
  3    -0.1393967436766428
  4    -0.0919833123541879
  5    -0.0546785222263271
  6     0.1801798024344473
  7     0.0259755599651880
  8     0.0134937561841078
  9     0.0238003454825281
 10    -0.0410399073787857
 11     0.1234783166517042
 12     0.0004309184597937
 13     0.0109450247862430
 14     0.2234853177249473
 15     0.1817063806738303
 16     0.0017353865576422
 17    -0.0491378488885292
 18    -0.0273693847749242
 19    -0.1479658910053576
 20    -0.1077710523960982
 21     0.1652678885291438
 22     0.0889511709252093
 23    -0.0830644291125796
 24     0.1796312438710361
 25    -0.0247999065771034
 26     0.0130677309247953
 27     0.0286452383453652
 28     0.1528920351037684
 29     0.3020367803736785
 30    -0.0238050883705399
 31    -0.0012219824641891
 32     0.0043001324850774
 33     0.1924851501776427
 34    -0.0050769739529775
 35     0.0312859054990776
 36    -0.0171307929616955
 37    -0.0157273856988132
 38     0.0046928627951384
 39    -0.0138768022557536
 40     0.0046680451877934
 41     0.0095383943002952
 42     0.0031321489482479
 43    -0.0047196572676956
 44     0.0014220921276188
 45     0.0018271158429404
 46     0.0014323415870497
 47     0.0058531311654935
 48    -0.0008329402270126
 49     0.0003317910879374
 50    -0.0005425535815349
 51    -0.0011900178261569
 52    -0.0006144259920043
 53     0.0010047573648367
 54     0.0006149972185948
 55     0.0000747145238745
 56     0.0005924745368978
 57    -0.0060427089635313
 58     0.0008025949192171
 59    -0.0015205393694309
 60    -0.0014007838346130
 61     0.0049144400452540
 62    -0.0014012225002043
 63    -0.0095936013615619
 64    -0.0031058551166048
 65     0.0146525727540586
 66    -0.0045241094098942
 67     0.0153071193265727
 68    -0.0047263180407559
 69     0.0018065123780190
 70    -0.0059982268396511
 71    -0.0799934421931157
 72    -0.0167663288266535
 73    -0.0053655109133631
 74     0.0006324248323707
 75     0.0091741100928844
 76     0.0175063432549217
 77     0.0030371102240627
 78     0.0079341543440073
 79     0.0139076065680603
 80    -0.0175544395775157
 81    -0.0010392298384861
 82     0.0263554564182555
 83     0.0756024688621662
 84     0.0011629061971550
 85     0.0043001493552461
 86     0.0110986173608657
 87     0.0042864915349011
 88     0.0189772646369841
 89    -0.0074071753955728
 90     0.0384561541718289
 91     0.0612619245266076
 92    -0.0072417395105041
 93    -0.0013197421332588
 94    -0.0185562011606585
 95    -0.0064236211428432
 96    -0.0030331075330030
 97    -0.0016468620315202
 98     0.0048004029159843
 99    -0.1154858692767780
 100     0.0092646522460344
 101     0.0017589393071696
 102    -0.0037569745869923
 103    -0.0633515103276517
 104    -0.0047701278076606
 105    -0.0009441902962573
 106    -0.0002298691470336
 107    -0.0502741965341736
 108     0.0061146909582020
 109     0.0010850920928162
 110    -0.0004822833051320
 111     0.0497284148848373
 112     0.0063643849603102
 113    -0.0019441389836063
 114    -0.0040409438226398
 115     0.0627933701619497
 116    -0.0046865703031766
 117     0.0017301696694330
 118     0.0054564318269761
 119     0.1156152926692513
 120     0.0088943311398445
 121     0.0012431657957096
 122    -0.0194158917855783
 123     0.0078788930160879
 124    -0.0026972359855142
 125     0.0074448877884553
 126     0.0391252022219195
 127    -0.0620853569639188
 128    -0.0073509370061166
 129    -0.0044964118534933
 130     0.0102773701742246
 131    -0.0017966364812304
 132     0.0189162819021973
 133     0.0008253960494587
 134     0.0271289183070260
 135    -0.0782240392592618
 136     0.0008526459428797
 137    -0.0028104075823219
 138     0.0072321678014450
 139    -0.0132150358125510
 140    -0.0171536041754065
 141     0.0052128916473944
 142     0.0017342259040755
 143    -0.0106418551805971
 144     0.0171777632011591
 145    -0.0016433234862027
 146    -0.0070215797075752
 147     0.0795747582849849
 148    -0.0162420103451038
 149     0.1543620553941682
 150    -0.2992454720148950
 151     0.0211389938591004
 152    -0.0021022006301371
 153    -0.0037475711789741
 154    -0.1916024129843336
 155    -0.0048203143154600
 156    -0.0311446744585593
 157    -0.0174226131069772
 158    -0.1331007575447475
 159     0.1084467273594448
 160     0.1405670614667608
 161    -0.0905981415391805
 162     0.0563741766660268
 163    -0.1796256227796597
 164     0.0258847752500898
 165    -0.0132247328119528
 166     0.0239367166193695
 167    -0.0415061051450149
 168    -0.1230974793813307
 169    -0.0008725361323587
 170     0.0089097074142799
 171    -0.2236100524890569
 172    -0.1811284183897933
 173     0.0013382140023591
 174     0.0490406054029282
 175    -0.0274862235109803
 176    -0.1459692803500835
 177     0.1073509426523574
 178    -0.1637896304928984
 179     0.0888085002162727
 180     0.0814842621185256
 181    -0.1792064822381534
 182    -0.0247715820396944
 183    -0.0129864039476740
 184     0.0283567920822118
 Sym= 82A
 Ene= -0.077434
 Spin= Alpha
 Occup= 2.000000
  1    -0.0003928167156446
  2    -0.0004403358221189
  3    -0.0005667798300912
  4    -0.0003397702176785
  5    -0.0001968900468742
  6     0.0007954757706300
  7     0.0001104252816056
  8     0.0000438330202699
  9     0.0000922618379072
 10    -0.0003301117832792
 11     0.0005459577511989
 12     0.0000049214449472
 13     0.0002326247180730
 14     0.0011542965287678
 15     0.0007832030664808
 16     0.0000303035016825
 17    -0.0002197072296594
 18    -0.0001548932955708
 19    -0.0005610125555320
 20    -0.0006277873692346
 21     0.0008315402374704
 22     0.0001932597719031
 23    -0.0005188669017282
 24     0.0007963545842490
 25    -0.0001105935602597
 26     0.0000145387332734
 27     0.0001447281903129
 28     0.0010628225130868
 29     0.0009624890129880
 30    -0.0002769849626055
 31    -0.0000036494127554
 32    -0.0001810119516424
 33     0.0007828265157386
 34    -0.0000417026314104
 35     0.0001198182458758
 36    -0.0001495722398453
 37    -0.0000622370862763
 38     0.0000159108041538
 39    -0.0001451980957065
 40     0.0000008160982126
 41     0.0001082341517845
 42     0.0000207229336595
 43     0.0000403795544863
 44     0.0000158073074865
 45     0.0000110895422116
 46    -0.0000149730355918
 47     0.0000318019911919
 48    -0.0000299615221301
 49     0.0001815243746916
 50     0.0000101493274918
 51     0.0001565984289724
 52    -0.0000023634749203
 53     0.0002790379744703
 54     0.0001381398781564
 55     0.0002312192468130
 56     0.0001232752868001
 57     0.0000850271358846
 58    -0.0000888793001546
 59    -0.0000947070757951
 60    -0.0000343684274534
 61     0.0008470754264377
 62     0.0003649102927195
 63     0.0003996842808208
 64     0.0000619889381439
 65     0.0046469521272964
 66     0.0000662831297720
 67    -0.0044027187737153
 68    -0.0000010361139669
 69    -0.0000435412674678
 70    -0.0000674283216416
 71    -0.0003109728268615
 72    -0.0000460234042550
 73    -0.0000393708636028
 74     0.0001762030218386
 75     0.0004362764869750
 76     0.0000374747991275
 77    -0.0000307320174579
 78     0.0001307087672603
 79     0.0003901743435154
 80    -0.0001725330988238
 81    -0.0000122260881773
 82     0.0001563424843850
 83     0.0003679857861893
 84    -0.0000813540336046
 85     0.0000208117333940
 86     0.0001147805101180
 87    -0.0000998085329632
 88     0.0001489688354698
 89    -0.0000554657213199
 90    -0.0000791615163218
 91    -0.0000334749801748
 92     0.0000231902284711
 93    -0.0001372740374515
 94    -0.0002649624112313
 95    -0.0004492972597720
 96    -0.0003236758831442
 97     0.0000566305188300
 98     0.0000609143204739
 99    -0.0004984350328815
 100     0.0003388093509192
 101    -0.0000768120182867
 102    -0.0000345114945169
 103    -0.0013038247047327
 104    -0.0005162726092959
 105    -0.0001055300661747
 106    -0.0000039182303859
 107     0.0011370997075903
 108    -0.0003854750716877
 109     0.0001989143781599
 110     0.0000676042265813
 111    -0.0007678007957217
 112     0.0005620816455635
 113     0.0001515285972266
 114    -0.0000621887466874
 115     0.0015629181306365
 116     0.0004156766733222
 117    -0.0001330354387346
 118     0.0000496374689769
 119     0.0004852603220661
 120    -0.0005816676845334
 121     0.0002256800613996
 122    -0.0001951289085764
 123    -0.0003463945959910
 124     0.0007806422120166
 125    -0.0003091760775103
 126     0.0041750581243089
 127    -0.0084901989139353
 128    -0.0010995700695353
 129    -0.0000716299821690
 130    -0.0037469673918295
 131     0.0080684000902776
 132     0.0005391676967738
 133     0.0008447677495846
 134     0.0027297099937858
 135    -0.0083809527953898
 136     0.0010462473524110
 137    -0.0002111411527037
 138    -0.0028159386958653
 139     0.0083167806921914
 140     0.0005249079745586
 141     0.0000489345179834
 142    -0.0003440595477230
 143    -0.0001569463630638
 144     0.0001359042592437
 145    -0.0000988391635499
 146     0.0015927524572853
 147     0.0010493362140839
 148     0.0003596030572255
 149     0.0077595385027263
 150    -0.0048511659456481
 151    -0.1066179942415870
 152     0.0492652504425881
 153    -0.0008889391049586
 154     0.0002765984600591
 155     0.0112995258885856
 156    -0.0009699257488301
 157    -0.0003677688067795
 158    -0.0350473099228445
 159     0.4812924686309616
 160     0.0622540909455489
 161     0.2878116457364392
 162     0.0737307663431657
 163    -0.0083658501069518
 164     0.0313466840232355
 165     0.0612887497839315
 166     0.0128600422860290
 167    -0.0048978136946257
 168    -0.0011649852496910
 169     0.0004110052935306
 170    -0.5709252732998786
 171    -0.0066119652491435
 172    -0.0001641560929871
 173    -0.0809502133385876
 174     0.0004401038362315
 175    -0.0012171965648957
 176     0.0316575794526602
 177    -0.4774673088501674
 178     0.0572630566560087
 179     0.2853313614814798
 180    -0.0670783422720243
 181     0.0076534948679346
 182     0.0313210768965092
 183    -0.0606294382839347
 184    -0.0119351575963693
 Sym= 83A
 Ene= -0.077407
 Spin= Alpha
 Occup= 2.000000
  1    -0.0351616347430192
  2    -0.4820314350967302
  3    -0.0624424718683253
  4     0.2880641085732365
  5    -0.0738928071754230
  6     0.0085884603496001
  7     0.0314389051851720
  8    -0.0613974399841219
  9     0.0129067263754646
 10    -0.0061252229636521
 11     0.0014608205024463
 12    -0.0004143115470147
 13    -0.5708840009619751
 14     0.0082791614282407
 15     0.0003174353122993
 16    -0.0809061650858963
 17    -0.0005795205394743
 18    -0.0014988095020480
 19     0.0309792891813900
 20     0.4772275150061068
 21    -0.0560433489759574
 22     0.2851327854876539
 23     0.0656105519737725
 24    -0.0073742212963827
 25     0.0313289359962295
 26     0.0605681807677062
 27    -0.0116814352391726
 28     0.0099293408084339
 29     0.0057857091710776
 30     0.1057341185587570
 31     0.0488894360088750
 32     0.0007674285606146
 33    -0.0000457341356529
 34     0.0111889363865121
 35     0.0012288007061953
 36    -0.0003926304195279
 37     0.0043356429859187
 38    -0.0000012181953833
 39    -0.0046006958191251
 40    -0.0000596974518204
 41    -0.0003847225813061
 42    -0.0000532024409590
 43    -0.0008676259448096
 44    -0.0003724886211445
 45     0.0000950925908390
 46     0.0000370358306835
 47    -0.0000757748540532
 48     0.0000888596346579
 49    -0.0002086511054521
 50    -0.0001201358214755
 51    -0.0002941416178061
 52    -0.0001347377962208
 53    -0.0001752261301057
 54     0.0000016887726423
 55    -0.0001620474479591
 56    -0.0000096021319998
 57    -0.0000460321850580
 58     0.0000288131104761
 59    -0.0000034509136271
 60     0.0000150309820413
 61    -0.0000292398923639
 62    -0.0000166487655021
 63    -0.0001249992392873
 64    -0.0000246076038360
 65     0.0001941536015484
 66    -0.0000003360140989
 67     0.0000755390441140
 68    -0.0000208062097322
 69     0.0000643819015251
 70     0.0016109481040317
 71    -0.0011290926553789
 72     0.0003560857597105
 73    -0.0000734371802842
 74    -0.0004055617297209
 75     0.0000037328848219
 76     0.0001826243713947
 77     0.0002076224842778
 78    -0.0027514633978548
 79    -0.0081281033646884
 80     0.0004945751292149
 81    -0.0008582827835525
 82     0.0026083537432168
 83     0.0081554778183810
 84     0.0010868550538908
 85     0.0000733211198048
 86    -0.0036058658877516
 87    -0.0077333127543098
 88     0.0005320329042042
 89     0.0002945940480285
 90     0.0041493070617390
 91     0.0083806294868394
 92    -0.0011049060707239
 93    -0.0002323144279397
 94    -0.0001574577654019
 95     0.0004875987358962
 96     0.0007738767610440
 97     0.0001350337100687
 98     0.0000261592507748
 99    -0.0006177025283436
 100    -0.0005759581427064
 101    -0.0001597743508199
 102    -0.0000393324811483
 103    -0.0016604236934707
 104     0.0004118017284444
 105    -0.0001834199459411
 106     0.0000852440432763
 107     0.0006122364996998
 108     0.0005569552313715
 109     0.0001201976364469
 110    -0.0000364876518306
 111    -0.0010990138036655
 112    -0.0003678949242343
 113     0.0000601685869937
 114    -0.0000625088539936
 115     0.0012816543888083
 116    -0.0005239639001924
 117    -0.0000517995875958
 118     0.0000966836909632
 119     0.0006406547615010
 120     0.0003412227858783
 121     0.0001358821500534
 122    -0.0003544875083850
 123     0.0005899802599728
 124    -0.0003136152335351
 125     0.0000676157226982
 126    -0.0000614620995477
 127     0.0000578987370543
 128     0.0000163687751497
 129    -0.0000290601209889
 130     0.0001172618861237
 131     0.0001471670479250
 132     0.0001723451416074
 133     0.0000078167494842
 134     0.0002000775993068
 135    -0.0005043711519804
 136    -0.0000845749046951
 137     0.0000316300806393
 138     0.0001673087325629
 139    -0.0004992503159106
 140    -0.0001929388001684
 141     0.0000427133617296
 142     0.0002432233514880
 143    -0.0005810354060521
 144     0.0000492492617453
 145     0.0000515282823028
 146    -0.0000910445392491
 147     0.0003968326458271
 148    -0.0000516088387719
 149     0.0014384847083075
 150    -0.0012485995816096
 151     0.0002995367732225
 152     0.0000175998099212
 153     0.0002288523583144
 154    -0.0009932204921406
 155    -0.0000503355556109
 156    -0.0001610966486542
 157    -0.0001962246969665
 158    -0.0005272985559013
 159     0.0009174996181352
 160     0.0007761753287436
 161    -0.0002188077631826
 162     0.0003156995819495
 163    -0.0010232501872253
 164     0.0001637611123360
 165    -0.0000097379846263
 166     0.0001276615333683
 167    -0.0004662519514454
 168    -0.0007048948163045
 169    -0.0000090391731096
 170    -0.0000941225328033
 171    -0.0015327668236760
 172    -0.0010000435965217
 173    -0.0000173391339530
 174     0.0002842247264623
 175    -0.0002089928589463
 176    -0.0007058439857667
 177     0.0004844222460182
 178    -0.0010523345343953
 179     0.0004310275911131
 180     0.0006552167958751
 181    -0.0010138999641267
 182    -0.0001188671007768
 183    -0.0000570559974088
 184     0.0001823535161123
 Sym= 84A
 Ene= -0.075503
 Spin= Alpha
 Occup= 2.000000
  1    -0.0269483095119579
  2    -0.0930718324199124
  3    -0.0642272694733541
  4     0.0841220383954420
  5    -0.0968675359944443
  6    -0.0392432854295727
  7    -0.0006746336837946
  8    -0.0213131990976266
  9     0.0089263358293901
 10    -0.2346855529998240
 11     0.0108053034973210
 12     0.0002719108731756
 13     0.0153885080723392
 14     0.2440200542761851
 15    -0.0514179580210796
 16     0.0019126658714241
 17    -0.0047769798635470
 18    -0.0505929752166914
 19    -0.0648353899988928
 20    -0.0582943439056777
 21     0.1269624394622464
 22    -0.0763254176469415
 23    -0.1841497982385804
 24    -0.0378212288881805
 25     0.0070704951014455
 26    -0.0195137829396321
 27     0.0232589622446199
 28     0.3964806674673017
 29     0.1268003817121570
 30    -0.0678352824787981
 31    -0.0203417426003977
 32     0.0945878761467889
 33    -0.0793159249780345
 34    -0.0083156533222439
 35     0.0448682029086733
 36    -0.0021337238112892
 37     0.0187584992296672
 38    -0.0007531474594136
 39     0.0075584545733468
 40    -0.0030588037731931
 41     0.0096536050216325
 42     0.0013083649327879
 43     0.0060974863758913
 44     0.0002076388064746
 45     0.0053767513859863
 46     0.0000230638833868
 47     0.0107396409336423
 48     0.0013622660984710
 49    -0.0055481812808448
 50    -0.0002509890325606
 51     0.0108884942526011
 52     0.0001050111413460
 53     0.0106546789614942
 54    -0.0000312587340907
 55    -0.0058540683789482
 56    -0.0003864301326580
 57     0.0122104774327038
 58     0.0016312906395464
 59     0.0070283707072932
 60     0.0002005799428024
 61     0.0075681849170692
 62     0.0001972712731988
 63     0.0105730829580843
 64     0.0013638848259332
 65     0.0118037926366046
 66    -0.0034095155600748
 67     0.0232675486543313
 68    -0.0009903432216191
 69    -0.0045927250857922
 70    -0.0033899039717212
 71     0.0097986837570241
 72    -0.0335001351186214
 73    -0.0152864629956787
 74     0.0273875437304786
 75     0.0619448806016379
 76     0.0390226243708556
 77     0.0011768210020747
 78     0.0157689390439837
 79     0.0282027702351732
 80    -0.0171471987596390
 81     0.0044058512437266
 82     0.0068939115538372
 83     0.0341512937059989
 84    -0.0181712861046438
 85    -0.0035508108427688
 86    -0.0090843668133040
 87    -0.0311590328158596
 88     0.0196041093844600
 89    -0.0061915992800166
 90    -0.0087672922387095
 91    -0.0302380070368160
 92     0.0172549637287607
 93    -0.0012946690021445
 94    -0.0298194630363574
 95    -0.0599456441349107
 96    -0.0056164448056872
 97    -0.0049795318555252
 98     0.0124809703984062
 99    -0.0042384290930619
 100     0.0103112335996682
 101     0.0044704291480892
 102    -0.0134436135631033
 103     0.0223706924799627
 104    -0.0076235185327600
 105    -0.0066436504634330
 106    -0.0092966809389687
 107     0.0257361472241485
 108    -0.0029252545333268
 109    -0.0066012419317506
 110     0.0087052746850398
 111     0.0254063964203552
 112     0.0029004049949958
 113     0.0044781429550614
 114     0.0141345898713801
 115     0.0265704138007112
 116     0.0072748766236160
 117    -0.0055821146297615
 118    -0.0123779337418865
 119    -0.0002717590069207
 120    -0.0118955557020899
 121    -0.0013180312336379
 122     0.0291235040278955
 123    -0.0598850692662978
 124     0.0067594490910540
 125    -0.0067572356374946
 126     0.0091491944815650
 127    -0.0308553212665979
 128    -0.0207716309100446
 129    -0.0044803611446956
 130     0.0102538935122413
 131    -0.0324139276318079
 132    -0.0223321346768496
 133     0.0048512441192811
 134    -0.0055060914183765
 135     0.0336739948738087
 136     0.0213163786825955
 137     0.0015041305025904
 138    -0.0161167412721094
 139     0.0257643135488833
 140     0.0194798469946251
 141    -0.0180978731614386
 142    -0.0273820230882343
 143     0.0622765759411726
 144    -0.0465105879401074
 145    -0.0046913065649394
 146     0.0029130423081813
 147     0.0145685264802450
 148     0.0403978184008283
 149    -0.4534901431111739
 150     0.1433610871135202
 151    -0.0669743747003517
 152     0.0210339680769265
 153     0.1163572552306686
 154    -0.1021988691035879
 155     0.0081005998388329
 156     0.0521857618341449
 157    -0.0003583010826571
 158     0.0317522542630569
 159    -0.1003882806587057
 160    -0.0739444591167816
 161    -0.1007688805086327
 162    -0.1184968463721713
 163    -0.0560064330715743
 164     0.0026717375069259
 165    -0.0250907170418373
 166    -0.0105954963708348
 167     0.2729757134972355
 168     0.0063168766295436
 169     0.0001940999037140
 170    -0.0149592691739884
 171     0.2734569583610246
 172    -0.0699859517900347
 173    -0.0018574055074500
 174    -0.0029336404841859
 175     0.0576086486444345
 176     0.0691491256505724
 177    -0.0651750185966521
 178     0.1360284095102068
 179     0.0927965665195285
 180    -0.2053594139185419
 181    -0.0545711586357193
 182    -0.0090867417489955
 183    -0.0232775273851058
 184    -0.0248347937809166
 Sym= 85A
 Ene= -0.075317
 Spin= Alpha
 Occup= 2.000000
  1    -0.0641357298569400
  2    -0.0136613760199736
  3    -0.1205815848192297
  4     0.1044942770155833
  5    -0.2265963849007347
  6    -0.1144837914164436
  7    -0.0200644138166044
  8    -0.0240758267810450
  9     0.0239438745092055
 10    -0.2767410549176056
 11    -0.0282808922461164
 12     0.0026430239215281
 13    -0.0087642583926359
 14     0.2219862022461094
 15    -0.1293643689599018
 16    -0.0026243208309303
 17     0.0113473416519159
 18    -0.0522079061441885
 19    -0.0090014222364116
 20    -0.0955917919515508
 21     0.0234345437721826
 22    -0.1303677736120689
 23    -0.0878681960056532
 24    -0.1172774785602320
 25     0.0077638384332203
 26    -0.0297966563176158
 27     0.0008730369308288
 28     0.4156627978912186
 29     0.1312249954678784
 30     0.1019132286884472
 31     0.0465683434801381
 32     0.1593698458598904
 33    -0.1601660207475430
 34     0.0124184288399539
 35     0.0534759800862537
 36     0.0169847290650506
 37     0.0415617276334929
 38    -0.0001085326139778
 39     0.0175639080270331
 40    -0.0044481952555650
 41     0.0087503046361410
 42     0.0002220633508716
 43     0.0075622343960927
 44    -0.0003673764967477
 45     0.0092270610361576
 46     0.0010778303778731
 47     0.0129083685076146
 48     0.0021340180650340
 49    -0.0026893257881987
 50    -0.0011547657891152
 51    -0.0007524476750087
 52    -0.0009005987596584
 53     0.0024585081090402
 54     0.0009187614473145
 55     0.0017123469748145
 56     0.0011050339324835
 57    -0.0112431033739058
 58    -0.0019108299262908
 59    -0.0084132020362504
 60    -0.0010786147152148
 61    -0.0066193165430724
 62     0.0003642766565908
 63    -0.0072442416395686
 64    -0.0000070858714732
 65    -0.0161993358080496
 66     0.0040004378205202
 67    -0.0388574881377819
 68    -0.0000794627034389
 69    -0.0002919484361234
 70    -0.0073064356564544
 71     0.0299804353011238
 72    -0.0491589145162553
 73    -0.0204990200477273
 74     0.0055729548260107
 75     0.0065236380766247
 76     0.0542266288567795
 77     0.0009493123116769
 78    -0.0003598038645698
 79    -0.0173439939761655
 80    -0.0152317954426052
 81     0.0044180790053958
 82    -0.0075318886793577
 83     0.0116344669458484
 84    -0.0229695166363007
 85    -0.0054436323145656
 86    -0.0094164748135843
 87    -0.0174975880604343
 88     0.0200961613223625
 89    -0.0049181690344003
 90     0.0035154804981041
 91     0.0028320858656466
 92     0.0238637998849511
 93    -0.0008200859962521
 94    -0.0016368417357825
 95    -0.0047223927051440
 96    -0.0074975624677835
 97    -0.0041051402934745
 98     0.0006380836277967
 99     0.0168522832130105
 100     0.0115819490353555
 101     0.0004547408644176
 102    -0.0059339191166773
 103     0.0254672432376995
 104     0.0014306880807641
 105    -0.0003584043290117
 106     0.0032858602503229
 107    -0.0050028532910696
 108     0.0001901891221390
 109    -0.0006769868955899
 110     0.0048194141673718
 111     0.0090176859111994
 112     0.0005647451470892
 113     0.0002900625097121
 114    -0.0038002061681597
 115    -0.0215909180046188
 116     0.0025637694171038
 117     0.0033601175681697
 118    -0.0014057205943959
 119    -0.0172158065960261
 120     0.0100373733707953
 121     0.0006343505760756
 122     0.0030537812693289
 123    -0.0047559332576136
 124    -0.0066836958585587
 125     0.0039723425460789
 126     0.0050286850962372
 127    -0.0078833347283497
 128     0.0212115980157588
 129     0.0048720869743865
 130    -0.0079694191848048
 131     0.0126707728676076
 132     0.0170922837056330
 133    -0.0037574813116518
 134    -0.0086113990525904
 135    -0.0064547248631815
 136    -0.0201968762329597
 137    -0.0007473010279311
 138    -0.0028766882480945
 139     0.0219064327561912
 140    -0.0125719719287192
 141     0.0181251229322390
 142     0.0013577470788465
 143     0.0032550395960465
 144     0.0482194346330144
 145    -0.0004580226234710
 146    -0.0069725711983594
 147    -0.0283587619154041
 148    -0.0440736453211280
 149     0.3527083496811050
 150    -0.1114785897813036
 151    -0.1159631579674586
 152     0.0511884799140004
 153    -0.1441468474474803
 154     0.1474361100247428
 155     0.0140982161270300
 156    -0.0463999362975841
 157     0.0172728901140778
 158    -0.0609415064369470
 159    -0.0014032261828296
 160     0.1119701687947857
 161     0.0911343563644748
 162     0.2133223006282197
 163     0.1079930936983596
 164    -0.0200577529546355
 165     0.0206806060890513
 166     0.0229061813191216
 167    -0.2396713682025186
 168     0.0298888835112451
 169    -0.0025173152092032
 170    -0.0124778737126591
 171    -0.1830908864646591
 172     0.1209533691474049
 173    -0.0030916414822382
 174    -0.0121502708075024
 175    -0.0441108741920773
 176     0.0019506995262064
 177     0.0866536780550345
 178    -0.0019491759398524
 179    -0.1179956312673266
 180     0.0565344788587943
 181     0.1112138765629235
 182     0.0064998659287221
 183     0.0266390673538583
 184    -0.0031649554516282
 Sym= 86A
 Ene= -0.075103
 Spin= Alpha
 Occup= 2.000000
  1    -0.0948699755750193
  2     0.1293012036039606
  3    -0.1581955652399974
  4     0.0039070641063277
  5    -0.2677663804876652
  6    -0.0587662238679821
  7    -0.0281069527854516
  8     0.0002874326063306
  9     0.0386895188322687
 10    -0.0606552702615165
 11    -0.0283812984217258
 12     0.0070579040260932
 13    -0.0505787584263407
 14     0.0127379619405327
 15    -0.0656970821263566
 16    -0.0104372517198155
 17     0.0118411950924040
 18    -0.0071872648614739
 19     0.0955495315585643
 20    -0.1144943214136249
 21    -0.1720831144825613
 22    -0.0721296315168535
 23     0.2071297586147268
 24    -0.0698356522099270
 25    -0.0114191344942203
 26    -0.0147619611932611
 27    -0.0402466451376653
 28     0.0591936298655510
 29     0.0238895522153850
 30     0.3509762720795129
 31     0.1571335517685756
 32     0.0603151449326289
 33    -0.0704505628691641
 34     0.0404552730874368
 35     0.0124289673453093
 36     0.0148773793289585
 37     0.0377884557926153
 38     0.0034902126648366
 39    -0.0104534146682587
 40    -0.0044120728057697
 41     0.0029148771237377
 42    -0.0013382859733918
 43    -0.0037015606219019
 44    -0.0009067498878673
 45    -0.0011731558709500
 46     0.0001902732426258
 47     0.0062062377011253
 48     0.0009536812317386
 49     0.0025975021546190
 50    -0.0008777599018479
 51    -0.0038789062844308
 52     0.0000970113096970
 53    -0.0037655226626942
 54     0.0001507495309370
 55     0.0026189247157567
 56    -0.0009435144031277
 57     0.0067167062857264
 58     0.0009872955502507
 59    -0.0029081545133255
 60     0.0000372983425893
 61    -0.0056082894452278
 62    -0.0009785155459379
 63     0.0032396782748906
 64    -0.0015945559143807
 65    -0.0182765490827469
 66    -0.0053270450543054
 67     0.0418644176535188
 68     0.0045505733674886
 69     0.0041967534252679
 70    -0.0216644937131992
 71     0.0149520540767484
 72    -0.0150190900964741
 73    -0.0058491602782322
 74    -0.0101494814637087
 75    -0.0445059651060057
 76     0.0150974509089156
 77    -0.0030192952024092
 78    -0.0195311093373644
 79    -0.0391942626731082
 80     0.0040616700686153
 81     0.0019416082321881
 82    -0.0130613424528156
 83    -0.0006095249259956
 84    -0.0057333832927147
 85    -0.0002224891150620
 86     0.0012167439056152
 87     0.0012241961530165
 88     0.0008823045844942
 89    -0.0013242078311844
 90     0.0201726753233250
 91     0.0377691628366733
 92     0.0044815647269221
 93    -0.0008488772274917
 94     0.0166197767157672
 95     0.0441194321644206
 96    -0.0015260041450418
 97    -0.0010144701410778
 98    -0.0056140375120187
 99     0.0046721428335396
 100     0.0003593338819915
 101    -0.0042903228430800
 102     0.0041080803067083
 103    -0.0161718658209614
 104     0.0027925175493989
 105     0.0035189806440617
 106     0.0054308854938527
 107    -0.0176566420996115
 108    -0.0001288316844860
 109     0.0033424595907165
 110    -0.0050293766452692
 111    -0.0183414277499692
 112     0.0000583547554629
 113    -0.0043713760990995
 114    -0.0041262994327646
 115    -0.0197259949614190
 116    -0.0026265760549081
 117    -0.0006706682559726
 118     0.0054434377646497
 119     0.0004943504021636
 120     0.0003244893013994
 121    -0.0010517225126931
 122    -0.0151844434165522
 123     0.0443920354268647
 124     0.0008364243981301
 125    -0.0013827790538253
 126    -0.0235584821360387
 127     0.0424132873384224
 128    -0.0029226267271103
 129     0.0006651399842256
 130    -0.0012330218725795
 131    -0.0018198853068165
 132     0.0003241404529008
 133     0.0022892142311085
 134     0.0125701238969074
 135     0.0050201538864334
 136     0.0050536139518816
 137    -0.0040590599716147
 138     0.0220947469597648
 139    -0.0403939327900686
 140    -0.0061479586592867
 141    -0.0047713613767327
 142     0.0082269489036626
 143    -0.0451360481435416
 144    -0.0122531899585393
 145     0.0044772219804920
 146     0.0277072432674101
 147     0.0129134856482072
 148     0.0123912033957881
 149    -0.0367249964182210
 150     0.0191573506883424
 151     0.4210000904043688
 152    -0.1908804473674131
 153     0.0521849851821784
 154    -0.0623104785376962
 155    -0.0482601709019930
 156     0.0096169923616863
 157    -0.0137608664610890
 158     0.1123143633243672
 159     0.1568478059897104
 160    -0.1874310453426421
 161     0.0089704902533835
 162    -0.3077468501572112
 163    -0.0514808810423999
 164     0.0314523806407617
 165     0.0032111802022359
 166    -0.0460031895142209
 167     0.0464836333809286
 168    -0.0266898004731864
 169     0.0086316126116365
 170     0.0607862881501105
 171     0.0012921682850416
 172    -0.0588318605320362
 173     0.0126139589002353
 174     0.0113009564539618
 175     0.0045151136997658
 176    -0.1159758056240994
 177    -0.1361011308381380
 178    -0.2089627616154541
 179     0.0726261933918581
 180     0.2632574736192669
 181    -0.0650083070044759
 182     0.0160903942364494
 183    -0.0147710508205238
 184     0.0489067361962706
 Sym= 87A
 Ene= -0.074924
 Spin= Alpha
 Occup= 2.000000
  1     0.1066438749310975
  2    -0.1565291036315758
  3     0.1831278176771672
  4     0.0659177033304592
  5     0.2537168072378979
  6    -0.0367421020223099
  7     0.0206549885241404
  8    -0.0148502277009599
  9    -0.0455863486157143
 10    -0.0612954912761174
 11    -0.0084473330268331
 12    -0.0097217259988573
 13     0.0639207914371061
 14     0.0463467822343352
 15    -0.0327345812330645
 16     0.0135054355801498
 17     0.0031005802138650
 18    -0.0114402574338728
 19    -0.1216677558998203
 20     0.1341447562646159
 21     0.2142130076586197
 22     0.0127673886132788
 23    -0.3232064268723967
 24    -0.0216009724789980
 25     0.0272127283225898
 26     0.0023804162763490
 27     0.0505613387422619
 28     0.0939895300146607
 29     0.0267845670549766
 30    -0.4229359711438774
 31    -0.2015653732939989
 32     0.0428401918050470
 33    -0.0396926083985799
 34    -0.0468585799518882
 35     0.0122479793443427
 36     0.0054026994043289
 37    -0.0259330524480431
 38    -0.0060983894248783
 39     0.0431758585473672
 40     0.0052417325180399
 41    -0.0019231622030227
 42     0.0015720673106907
 43     0.0115215966394950
 44     0.0008353141703847
 45     0.0099670281337749
 46     0.0008607981269732
 47    -0.0034173843094995
 48    -0.0003438445188226
 49    -0.0006127593433194
 50     0.0004046734976639
 51    -0.0000147763343532
 52    -0.0003628279948992
 53     0.0014494941170122
 54     0.0003416470762868
 55    -0.0003948723881012
 56    -0.0002623916292997
 57     0.0027802217271770
 58     0.0002441370075217
 59    -0.0094485830322065
 60    -0.0009054200375123
 61    -0.0103716542548015
 62    -0.0006109453809918
 63     0.0018646485954992
 64    -0.0012483362316663
 65    -0.0409705559729117
 66    -0.0046084338403864
 67     0.0195787611374435
 68     0.0053573808809344
 69    -0.0014984536649119
 70     0.0350367179225549
 71     0.0087838615824348
 72    -0.0140925610616136
 73    -0.0057042463064554
 74    -0.0084472861783903
 75     0.0105290166379262
 76     0.0152262733006768
 77     0.0064089483248303
 78     0.0160482347577819
 79     0.0089139465104265
 80    -0.0123492409600011
 81    -0.0016308562710908
 82     0.0010865572664784
 83    -0.0266922935688081
 84    -0.0040725453491942
 85    -0.0048448242574159
 86    -0.0018420025919961
 87     0.0127189910387003
 88     0.0075394071757822
 89     0.0003466250381169
 90    -0.0197786178539855
 91    -0.0266917506634317
 92     0.0085092567327622
 93     0.0012488571662163
 94     0.0048054119973680
 95    -0.0085578311377113
 96    -0.0038783709934787
 97    -0.0019728839474683
 98     0.0000190296006849
 99     0.0204011362106104
 100     0.0043170893242081
 101     0.0011039728962398
 102    -0.0007059556952730
 103     0.0211197802805219
 104     0.0003173924371779
 105     0.0005379806105459
 106     0.0018740928266085
 107     0.0053414063871709
 108    -0.0004016010325249
 109    -0.0016493712471634
 110     0.0035865567883888
 111    -0.0000841465547844
 112    -0.0003909788023549
 113     0.0000833450135580
 114     0.0009977813035696
 115    -0.0159066627461823
 116     0.0012145758261332
 117     0.0018762070934828
 118    -0.0019865440519274
 119    -0.0210930425324616
 120     0.0038808721375128
 121    -0.0010943544954058
 122     0.0099983413737796
 123    -0.0042601943993254
 124    -0.0039542686948256
 125    -0.0004114867223456
 126    -0.0152773279966653
 127     0.0175442850156178
 128     0.0083770069474584
 129     0.0046809156217625
 130    -0.0006635445628484
 131    -0.0156731975059403
 132     0.0066037141567496
 133     0.0015564388977053
 134    -0.0022674479792293
 135     0.0294306182122537
 136    -0.0040462195177294
 137    -0.0057286573518871
 138     0.0113807267302375
 139     0.0002294274091568
 140    -0.0106581275957833
 141     0.0060383704112037
 142    -0.0122782198688149
 143     0.0025194397211607
 144     0.0161283639174097
 145     0.0004214784928246
 146     0.0310971268386282
 147    -0.0109981969329844
 148    -0.0152889708617564
 149     0.0874723629199050
 150    -0.0247530695377182
 151     0.3510676788676004
 152    -0.1700643599292362
 153    -0.0488373675053053
 154     0.0483800744538507
 155    -0.0385977089754834
 156    -0.0126632873223380
 157     0.0084035152586988
 158     0.0892987157592296
 159     0.1282214300550195
 160    -0.1549500292992477
 161     0.0628330073481165
 162    -0.2061964475120271
 163     0.0454434143662356
 164     0.0154068722167111
 165     0.0138337323173364
 166    -0.0383282088593093
 167    -0.0619683603309836
 168     0.0141083217778774
 169     0.0084448598658219
 170     0.0525063374318701
 171    -0.0379044782837363
 172     0.0422079724912434
 173     0.0112956797687962
 174    -0.0054468145603573
 175    -0.0104136531844218
 176    -0.1000984033588165
 177    -0.1150122484884102
 178    -0.1752492034188491
 179     0.0029557228505316
 180     0.2743574193197627
 181     0.0326632672542319
 182     0.0245806599427259
 183    -0.0005558859946494
 184     0.0417437630655157
 Sym= 88A
 Ene= -0.073143
 Spin= Alpha
 Occup= 2.000000
  1     0.0381280649079255
  2     0.0281146390514444
  3     0.1314355462744245
  4     0.0656337287563573
  5     0.0776216178165108
  6    -0.1931567622614347
  7    -0.0160079154274173
  8    -0.0084450290919440
  9    -0.0264688420816177
 10    -0.0328461737498642
 11    -0.0964091430998252
 12    -0.0087246747567499
 13     0.0178975872036257
 14    -0.1245968774743191
 15    -0.1796446695133753
 16     0.0068734001949280
 17     0.0401428285483468
 18     0.0131037017098104
 19    -0.0231191279779862
 20     0.1201022806813367
 21    -0.0186484790347624
 22    -0.0446222338656622
 23    -0.1027418510925082
 24    -0.1828917882495123
 25     0.0320170572507920
 26    -0.0041358825772232
 27     0.0046923513063988
 28    -0.0891978794259792
 29     0.0648096009164133
 30    -0.1198199420121401
 31    -0.1002289312623703
 32     0.1819593596479079
 33    -0.1617848493179171
 34    -0.0075404097428625
 35     0.0218916609632499
 36     0.0674587553327235
 37     0.0025315154039809
 38    -0.0056182281230538
 39     0.0861916080479054
 40     0.0091296387437322
 41    -0.0062336572144837
 42     0.0002871024012050
 43     0.0141311685717491
 44     0.0002780755773161
 45     0.0200489642321242
 46     0.0037234668333612
 47    -0.0064016347138130
 48    -0.0021018655325897
 49     0.0308537807428605
 50     0.0007189494704902
 51    -0.0269293644884806
 52    -0.0008952227767671
 53    -0.0269794439881409
 54    -0.0008900960729153
 55     0.0308448017295629
 56     0.0006991666981974
 57    -0.0061792142863448
 58    -0.0021028330471951
 59     0.0197845199152138
 60     0.0037268450273727
 61     0.0137831046137432
 62     0.0002610761191531
 63    -0.0060586566449631
 64     0.0002771376301595
 65     0.0850899580550078
 66     0.0089656547379262
 67     0.0034323760533136
 68    -0.0054159734168771
 69     0.0192883392081516
 70     0.0446104031791647
 71     0.0230130147336359
 72    -0.0488584527072152
 73    -0.0166685016518775
 74    -0.1055678408696679
 75    -0.2104625201166124
 76     0.0422038743494351
 77     0.0090633842483227
 78    -0.0282931618628745
 79    -0.1217818101122519
 80    -0.0093668747682855
 81    -0.0066502846922808
 82    -0.0430862248497157
 83    -0.1217138012214586
 84    -0.0021367846610127
 85    -0.0086001964651342
 86     0.0296908208859362
 87     0.1169530961412097
 88     0.0038262922091679
 89     0.0014387426011910
 90     0.0269118329794080
 91     0.1080223822221903
 92     0.0101581995658259
 93    -0.0014021210143078
 94     0.1090441007296176
 95     0.2104145376306618
 96    -0.0189450366436518
 97    -0.0037014731808047
 98    -0.0432514908063767
 99     0.0125339082850976
 100     0.0091449727606415
 101    -0.0206170723966755
 102     0.0388559379354965
 103    -0.0882097772828756
 104     0.0036670378441337
 105     0.0192389190483344
 106     0.0413831052061239
 107    -0.0878343358657127
 108    -0.0129298755332121
 109     0.0193026206206392
 110    -0.0416547465575516
 111    -0.0893543642617236
 112     0.0129457415102634
 113    -0.0205857357720059
 114    -0.0390449118600108
 115    -0.0885378948378294
 116    -0.0035440332998963
 117    -0.0036350234877807
 118     0.0432776948478744
 119     0.0104861353161408
 120    -0.0091799319045726
 121    -0.0015129846014299
 122    -0.1081285379968092
 123     0.2101776117472583
 124     0.0187959691793768
 125     0.0014218228961205
 126    -0.0276091911363584
 127     0.1088798637019482
 128    -0.0099531396096136
 129    -0.0083709057100776
 130    -0.0296417441245096
 131     0.1164947442711672
 132    -0.0038766821173363
 133    -0.0064295815976667
 134     0.0429244780551502
 135    -0.1206147112124189
 136     0.0020403264590483
 137     0.0089382851121680
 138     0.0284844913674724
 139    -0.1218314907408734
 140     0.0091854930703128
 141    -0.0167043206747565
 142     0.1048717873728611
 143    -0.2105822458159847
 144    -0.0424894781789647
 145     0.0193550652437412
 146    -0.0435637212257103
 147     0.0223900907555904
 148     0.0489160494499616
 149     0.0890760848079094
 150     0.0639933801716029
 151    -0.1169994601586120
 152     0.0988340292284964
 153     0.1808214653557682
 154    -0.1605652768865894
 155     0.0071468802433364
 156     0.0219071516244832
 157    -0.0672944823719807
 158    -0.0373451170793491
 159     0.0286253060593351
 160     0.1298341868452639
 161    -0.0649919719675967
 162     0.0760635315894699
 163    -0.1921165005733037
 164     0.0160066292617068
 165    -0.0083302145461906
 166     0.0260688374912953
 167     0.0323887771568524
 168    -0.0959939790265652
 169    -0.0088062317080529
 170    -0.0173545484433120
 171    -0.1244620637447266
 172    -0.1786305771744736
 173    -0.0067969941368127
 174     0.0399931993939743
 175    -0.0132145148191766
 176     0.0224790162510321
 177     0.1190187403651253
 178    -0.0195150681002181
 179     0.0443381973423018
 180    -0.1006852564394818
 181    -0.1820401238886869
 182    -0.0317308438821223
 183    -0.0040951533940189
 184    -0.0044534695806251
 Sym= 89A
 Ene= -0.056274
 Spin= Alpha
 Occup= 2.000000
  1     0.0336862816792416
  2    -0.0436528553401099
  3    -0.0193694639745495
  4     0.0111097308365243
  5     0.0108717002124476
  6     0.1121410764253660
  7     0.0116701461871769
  8    -0.0136694491478112
  9    -0.0056870751129764
 10    -0.0456048859245669
 11     0.0365902038402095
 12     0.0025998781532755
 13     0.0009407307412671
 14     0.1004088608336051
 15     0.0706628828116305
 16    -0.0028397443720484
 17    -0.0156826320507020
 18    -0.0323417904408145
 19     0.0329732517894309
 20    -0.0488843371437119
 21     0.0187127056367962
 22    -0.0113019670396064
 23     0.0141281797879708
 24     0.1092869609067826
 25    -0.0129489476357317
 26    -0.0141161522494601
 27    -0.0069891840200384
 28     0.1598094715386340
 29    -0.1774798235957020
 30    -0.0019529399892912
 31     0.0120038105201793
 32    -0.1402331407496550
 33    -0.0344338710807072
 34    -0.0007541801770445
 35    -0.0438634254027942
 36    -0.0847492433589037
 37     0.0162786609022362
 38     0.0011472136436806
 39    -0.0323688269148989
 40    -0.0095023665665967
 41    -0.0139444743534130
 42    -0.0054571909605548
 43     0.0118932587835518
 44    -0.0003237397959809
 45    -0.0019071426729041
 46    -0.0045196718788471
 47    -0.0082511237741946
 48     0.0028178216788977
 49     0.0015596881943844
 50     0.0029908302961137
 51    -0.0029307175265601
 52    -0.0029611511328410
 53     0.0028730863482038
 54     0.0029603958727420
 55    -0.0016158457646854
 56    -0.0029888757941724
 57     0.0083097774128193
 58    -0.0028509417215246
 59     0.0017645142422291
 60     0.0045215162651316
 61    -0.0119316822134496
 62     0.0003674267299127
 63     0.0139370532049708
 64     0.0054404243220768
 65     0.0317731210500213
 66     0.0093878691759598
 67    -0.0157150242975750
 68    -0.0010446222799740
 69    -0.0422378936919212
 70    -0.0144304884333455
 71     0.1231870729638362
 72     0.0587257324624515
 73     0.0182187368150622
 74     0.0857565641414591
 75     0.1952768789905590
 76    -0.0408922815853233
 77    -0.0063623105971336
 78     0.0023607362605129
 79     0.0224650992190687
 80     0.0245123758091233
 81     0.0049458742695208
 82     0.0133146015565921
 83     0.0079993600150389
 84    -0.0130925638108485
 85    -0.0115185913927427
 86    -0.0932886376377268
 87    -0.1703020344696015
 88    -0.0209414270179832
 89     0.0188842982419493
 90    -0.0991507583559553
 91    -0.1732646395515546
 92     0.0204442013603914
 93     0.0026407154226880
 94    -0.0378279436170810
 95    -0.1520737304761404
 96     0.0115352151322766
 97     0.0026011149188642
 98     0.0023468546854347
 99     0.3347386735123258
 100    -0.0182887318164658
 101     0.0027721437276682
 102    -0.0031018483204473
 103     0.1907733136540599
 104    -0.0073361291321404
 105    -0.0073500439223758
 106    -0.0043548041861321
 107     0.1906129208772558
 108     0.0047716297820011
 109     0.0073885799596851
 110    -0.0048296009216654
 111    -0.1905026467878285
 112     0.0048719406340003
 113    -0.0025729552675534
 114    -0.0034684527642846
 115    -0.1907111455474919
 116    -0.0071769317490658
 117    -0.0028238587185232
 118     0.0016573918086890
 119    -0.3351098850121018
 120    -0.0177203381737069
 121    -0.0026356000560447
 122    -0.0370587041492497
 123     0.1510921984452352
 124     0.0112031132636343
 125    -0.0189017756091716
 126    -0.0992248874822628
 127     0.1735103909904951
 128     0.0205656455018946
 129     0.0117400268698833
 130    -0.0928430641437971
 131     0.1696824627458143
 132    -0.0207911956305955
 133    -0.0046265699860701
 134     0.0130000827318767
 135    -0.0069855115238490
 136    -0.0128856081125182
 137     0.0061664009517786
 138     0.0023792778565769
 139    -0.0220996604247561
 140     0.0243142593522878
 141    -0.0183380528184851
 142     0.0849238108976666
 143    -0.1946755815117871
 144    -0.0412288638279794
 145     0.0422609712007770
 146    -0.0131075912384413
 147    -0.1233211063965559
 148     0.0585787317941601
 149     0.1590485402141859
 150     0.1773407399951057
 151     0.0003523254183009
 152     0.0148545905580018
 153     0.1404788773379726
 154     0.0344137895329006
 155    -0.0010402426695297
 156     0.0439531998610301
 157    -0.0847421892004648
 158     0.0333989185238258
 159     0.0433089594969097
 160     0.0197263940000503
 161     0.0110445114041526
 162    -0.0099513004102856
 163    -0.1124596520528529
 164     0.0115243681743686
 165     0.0136661652199603
 166    -0.0054327026291173
 167    -0.0454696707961071
 168    -0.0365853428373967
 169    -0.0026845476489994
 170     0.0004790437518728
 171    -0.1002290693160530
 172    -0.0707396514192905
 173    -0.0029184026485925
 174     0.0156534339735838
 175    -0.0322948818034249
 176     0.0332911189807549
 177     0.0490086554175895
 178    -0.0180501614821915
 179    -0.0113125387885144
 180    -0.0152257477709127
 181    -0.1089564687197444
 182    -0.0130559428837134
 183     0.0140614578693468
 184    -0.0073164751664141
 Sym= 90A
 Ene= -0.028224
 Spin= Alpha
 Occup= 2.000000
  1    -0.0526516175891408
  2     0.0388547164801347
  3    -0.0373817228084196
  4    -0.0204638131551806
  5    -0.0542440317667693
  6    -0.1619528147803735
  7    -0.0145809100693965
  8     0.0322085115004100
  9     0.0638020635049129
 10     0.0874751301805489
 11    -0.0262174192018117
 12     0.0023404527751161
 13    -0.0042011791308871
 14    -0.1008817536231524
 15    -0.0808732603756206
 16    -0.0043630494595990
 17     0.0077250211502872
 18     0.0800291729722738
 19    -0.0502090598591352
 20     0.0321394901221067
 21     0.0363754463884003
 22     0.0212183826148023
 23    -0.0455391948161043
 24    -0.1769395000076928
 25     0.0084425263318025
 26     0.0321466099983768
 27     0.0609274055233973
 28    -0.1328034503619642
 29     0.1870083856233773
 30     0.0015527394486176
 31     0.0092444481670303
 32     0.1617777542560894
 33     0.2595270090472100
 34    -0.0095979697896029
 35     0.0592385196842990
 36     0.1400130145881124
 37    -0.0435532812165350
 38     0.0014116012615945
 39    -0.0514293225612439
 40    -0.0020814715722538
 41     0.0044929162274433
 42     0.0106573676809215
 43    -0.0028918308963380
 44     0.0048281555351133
 45     0.0079486594605369
 46     0.0004353502590266
 47     0.0020277234771243
 48     0.0032307368746082
 49    -0.0088346614692192
 50     0.0013158004191378
 51     0.0101284425789108
 52    -0.0022242226171161
 53     0.0101407924725707
 54    -0.0022211423769328
 55    -0.0088340567753130
 56     0.0013131675657041
 57     0.0021217803399879
 58     0.0032266595928252
 59     0.0078750519186453
 60     0.0004362162588192
 61    -0.0027791720611876
 62     0.0049392265613813
 63     0.0044814461101410
 64     0.0106366610910580
 65    -0.0512778539312033
 66    -0.0020321920063117
 67    -0.0435923245108019
 68     0.0013456793309318
 69     0.0606447956941255
 70    -0.0245255590433661
 71    -0.2802635047973145
 72    -0.0717118068511254
 73    -0.0254898302508725
 74     0.0244173042816872
 75     0.0953305083958318
 76     0.0412370348292824
 77     0.0130002591355819
 78     0.0776132937965003
 79     0.1484089234683148
 80    -0.0289406825373785
 81    -0.0135675342739331
 82     0.0653719488468489
 83     0.1609213467824809
 84     0.0055999960603774
 85    -0.0062431284137898
 86    -0.0080574660018504
 87    -0.0256948107249033
 88     0.0217070395575645
 89    -0.0026518823933347
 90     0.0020617951702971
 91    -0.0099662612994652
 92     0.0008159429632673
 93    -0.0025211171713741
 94    -0.0807151297465360
 95    -0.1726713591347696
 96     0.0099195831712220
 97    -0.0022500078928102
 98     0.0148404297550786
 99    -0.0495196137600613
 100     0.0036832525218274
 101     0.0135105397224322
 102    -0.0170966295239049
 103     0.0671226110993953
 104    -0.0048931196998865
 105    -0.0152134128645480
 106    -0.0147841403313536
 107     0.0673605954110693
 108     0.0042984732855965
 109    -0.0152864879758653
 110     0.0150146835944340
 111     0.0677224802204148
 112    -0.0043663744055233
 113     0.0134829430649258
 114     0.0173040817998830
 115     0.0673978091801605
 116     0.0048365111170561
 117    -0.0023145333430292
 118    -0.0149545181591176
 119    -0.0490585855838907
 120    -0.0036245283645951
 121    -0.0024242870962543
 122     0.0804213814572226
 123    -0.1728590682900983
 124    -0.0098405800357811
 125    -0.0027422967965121
 126    -0.0020038840393042
 127    -0.0101290889611839
 128    -0.0010131071473783
 129    -0.0061359552177187
 130     0.0079624726591993
 131    -0.0256979873608897
 132    -0.0215385183023562
 133    -0.0132996060095851
 134    -0.0654047401223565
 135     0.1613786699164928
 136    -0.0049992289841184
 137     0.0125951518996222
 138    -0.0773358268375851
 139     0.1488540263818455
 140     0.0288179904359449
 141    -0.0254186405836510
 142    -0.0247055916305457
 143     0.0954121616629512
 144    -0.0410634735352475
 145     0.0605626687937549
 146     0.0260854458935669
 147    -0.2798943001225332
 148     0.0711964694326734
 149     0.1321738211863308
 150     0.1871492099334610
 151     0.0004639878209928
 152    -0.0059385134114914
 153     0.1621117927451463
 154     0.2596002846094101
 155     0.0088127480491578
 156     0.0591945345014713
 157    -0.1400375109225954
 158     0.0524802040871973
 159     0.0384313554213077
 160    -0.0372677571354887
 161     0.0204039436878407
 162    -0.0535819376716565
 163    -0.1628783075791051
 164     0.0141886154412008
 165     0.0321669216454052
 166    -0.0635082662141290
 167    -0.0874422119230674
 168    -0.0261596855916984
 169     0.0021991269896581
 170     0.0036507140599486
 171    -0.1007694296648240
 172    -0.0812447062997397
 173     0.0041068418286751
 174     0.0075840250223118
 175    -0.0800279387109311
 176     0.0504210137257385
 177     0.0323234805310516
 178     0.0367338008941073
 179    -0.0211550988522210
 180    -0.0463936469798508
 181    -0.1758600587395457
 182    -0.0087881971405546
 183     0.0319947086885037
 184    -0.0613850395039661
 Sym= 91A
 Ene= -0.023027
 Spin= Alpha
 Occup= 2.000000
  1     0.0468528689641935
  2    -0.0298300408537250
  3     0.0437698559001138
  4     0.0148572992173908
  5     0.0556696827953678
  6     0.1427901096737317
  7     0.0135993983815759
  8    -0.0268704728014924
  9    -0.0720857578999164
 10    -0.0829839058466654
 11     0.0191042854381391
 12    -0.0026974183175948
 13     0.0049717570727238
 14     0.0841504042279657
 15     0.0852128214846409
 16     0.0066504570360675
 17    -0.0020847512596754
 18    -0.0807357097523545
 19     0.0447861601659445
 20    -0.0213248753270047
 21    -0.0433881915439939
 22    -0.0159387688844410
 23     0.0471042956834750
 24     0.1640583953630105
 25    -0.0046992549166167
 26    -0.0265812987972154
 27    -0.0691811681077282
 28     0.1015684712393868
 29    -0.1451670419220587
 30     0.0008822193917873
 31    -0.0093328726953506
 32    -0.1384544679768666
 33    -0.2688747070337419
 34     0.0106858888265111
 35    -0.0403315614897550
 36    -0.1274819004062762
 37     0.0394522132638872
 38    -0.0019143658230463
 39     0.0583412528372580
 40     0.0048763385422285
 41     0.0015321544934176
 42    -0.0092023097101298
 43    -0.0030252587273182
 44    -0.0052602123225089
 45    -0.0100705822947307
 46     0.0007365106216360
 47     0.0017225564559121
 48    -0.0043675212680997
 49    -0.0023228589454500
 50    -0.0031182324296076
 51     0.0035080200485630
 52     0.0047726369422840
 53    -0.0034484745595440
 54    -0.0047648692986367
 55     0.0022803877014940
 56     0.0031014870535561
 57    -0.0016165827342900
 58     0.0043784330160432
 59     0.0100233846203287
 60    -0.0007311861925281
 61     0.0031263117877630
 62     0.0053612294426718
 63    -0.0015232481217118
 64     0.0091883495030096
 65    -0.0580434172823526
 66    -0.0047954828823743
 67    -0.0396152932018163
 68     0.0018159820337969
 69    -0.0484037709335525
 70     0.0262765264322150
 71     0.2438247068718160
 72     0.0577882960545561
 73     0.0217469959156181
 74    -0.0490470767162062
 75    -0.1577454629699525
 76    -0.0322442902409352
 77    -0.0125993792472519
 78    -0.0746210226476418
 79    -0.1414145510868977
 80     0.0213646671861657
 81     0.0142898968892181
 82    -0.0644367189394895
 83    -0.1506511178670541
 84    -0.0011428548931033
 85     0.0140897254582437
 86     0.0494153700479844
 87     0.0909499766877082
 88    -0.0151269226923099
 89    -0.0072851879452843
 90     0.0401264946905967
 91     0.0735047543896403
 92    -0.0110894319587265
 93     0.0019348082963297
 94     0.0756690056460646
 95     0.1882279288573130
 96    -0.0109899680311676
 97     0.0008224307275544
 98    -0.0068104471455684
 99    -0.1438222401422953
 100     0.0038896531998186
 101    -0.0069525037048003
 102     0.0086209097197374
 103    -0.1069440097685952
 104     0.0130804792381822
 105     0.0097777491602121
 106     0.0058637151481766
 107    -0.1064031799248192
 108    -0.0129747514900561
 109    -0.0098380531284170
 110     0.0062160811207881
 111     0.1065502458862005
 112    -0.0130975333606040
 113     0.0068748087850440
 114     0.0089204458328707
 115     0.1071428737269213
 116     0.0129642442992252
 117    -0.0007513549873810
 118    -0.0065824860311255
 119     0.1438218055585372
 120     0.0036376157178938
 121    -0.0018499833883013
 122     0.0752693606104746
 123    -0.1882041962028647
 124    -0.0108113691631231
 125     0.0071744837230203
 126     0.0401129195766453
 127    -0.0736853726656307
 128    -0.0113350969290260
 129    -0.0140315631586385
 130     0.0491201501902259
 131    -0.0907648197570178
 132    -0.0150406652900138
 133    -0.0140796684618842
 134    -0.0644316741760554
 135     0.1509442713930577
 136    -0.0005987462907283
 137     0.0122430827338538
 138    -0.0743445323004749
 139     0.1417529876231075
 140     0.0212857373264838
 141    -0.0216402776718252
 142    -0.0491241551338774
 143     0.1576473490897088
 144    -0.0319865035079236
 145     0.0483213885814259
 146     0.0275135145093937
 147    -0.2434412689514567
 148     0.0573498007679582
 149     0.1011030256212872
 150     0.1453035563521217
 151    -0.0016207800047402
 152    -0.0067174148183566
 153     0.1387528878131210
 154     0.2690594483949519
 155     0.0100013211421155
 156     0.0402264883993505
 157    -0.1275463770681698
 158     0.0467416116297642
 159     0.0294340753009028
 160    -0.0437375837908452
 161     0.0147850775929936
 162    -0.0552019393963308
 163    -0.1436888228940930
 164     0.0132037427160889
 165     0.0267911185996612
 166    -0.0718886725944300
 167    -0.0829903404229388
 168    -0.0190322961158842
 169     0.0025833357480268
 170     0.0044919300758767
 171    -0.0840669211484059
 172    -0.0857077639355306
 173     0.0063779497268722
 174     0.0019093661412158
 175    -0.0807856660220680
 176     0.0449499972682083
 177     0.0214720183397158
 178     0.0436694617854657
 179    -0.0158480545536921
 180    -0.0477948647632037
 181    -0.1629783482206465
 182    -0.0050555918675368
 183     0.0264004280195004
 184    -0.0695985946156052
 Sym= 92A
 Ene= -0.007858
 Spin= Alpha
 Occup= 2.000000
  1    -0.0065767864385943
  2    -0.0768488614926551
  3    -0.0413216006483806
  4     0.0779669304086790
  5    -0.0538066620694982
  6     0.1321021960351478
  7    -0.0009058813301268
  8    -0.1434352376402002
  9     0.0581009087706941
 10     0.0381508769128600
 11     0.0548997956217701
 12    -0.0002887699137014
 13     0.0019966690567302
 14     0.0208137663582901
 15    -0.4376079925398498
 16     0.0020107370408286
 17    -0.1518770808471663
 18     0.0772312630955750
 19    -0.0069771585666578
 20    -0.0744622921022508
 21     0.0411887367588437
 22    -0.0784500231691010
 23    -0.0557784595296595
 24     0.1420895339263819
 25     0.0053518031556913
 26    -0.1434633181254940
 27     0.0583480774046692
 28    -0.0846753683721570
 29    -0.0453269851168899
 30     0.0012091962636948
 31    -0.0004411418716257
 32     0.0265018155574237
 33     0.1624106574195835
 34     0.0030566946938886
 35    -0.1413450992872513
 36     0.0561300927654480
 37     0.0226133239353927
 38     0.0023488490355448
 39     0.0177961877082192
 40     0.0014253674213527
 41     0.0019175855121298
 42    -0.0034448216030848
 43    -0.0002719839468920
 44    -0.0009556237055391
 45     0.0000171372413937
 46     0.0000461758952009
 47     0.0026039768968934
 48     0.0005557519189949
 49     0.0010353881108439
 50    -0.0004796728850970
 51    -0.0013569028293797
 52     0.0001067015506279
 53    -0.0012680494451463
 54     0.0002268250228138
 55     0.0009431409450475
 56    -0.0006582253447524
 57     0.0031905106161666
 58     0.0005779691073721
 59    -0.0001030292389103
 60     0.0000885932343351
 61    -0.0004303516264189
 62    -0.0012126725108985
 63     0.0024435288040761
 64    -0.0042031021452408
 65     0.0219949588402032
 66     0.0017496700242074
 67     0.0275252775636078
 68     0.0028747634563202
 69     0.0066350314265895
 70     0.0022270859769741
 71     0.0726723293174659
 72    -0.0121071282895482
 73    -0.0064724203736983
 74     0.0038071763271129
 75     0.0042502274587322
 76     0.0095130581197321
 77    -0.0016555808917292
 78    -0.0103896891647342
 79    -0.0236314088018294
 80     0.0020588855304375
 81     0.0015280689172865
 82    -0.0167050404096718
 83    -0.0193685715026724
 84    -0.0022359586414374
 85    -0.0010644856023615
 86    -0.0038459830561055
 87    -0.0071571039315719
 88     0.0008104756913079
 89    -0.0007371241799028
 90     0.0003929433812222
 91     0.0011334468931564
 92     0.0027680413151120
 93    -0.0007942469561271
 94     0.0102749581176366
 95     0.0249039545673195
 96    -0.0007163561649132
 97    -0.0002433042663298
 98    -0.0016118751509627
 99     0.0134513388373128
 100    -0.0004039064019625
 101    -0.0020733384244375
 102     0.0017987687925931
 103    -0.0102558637229630
 104     0.0007746568763679
 105     0.0017753785072321
 106     0.0020578982415805
 107    -0.0099622114991260
 108     0.0000539321272788
 109     0.0020547586412705
 110    -0.0023669640968136
 111    -0.0132564043771237
 112     0.0003536996631132
 113    -0.0023670831182791
 114    -0.0020430783685866
 115    -0.0134898917487662
 116    -0.0012174373623290
 117    -0.0002622153514170
 118     0.0018320499863431
 119     0.0096628003079264
 120     0.0001665331851114
 121    -0.0009517509760128
 122    -0.0127656820957706
 123     0.0315934756200295
 124     0.0010146591513948
 125    -0.0012079509998845
 126    -0.0018364596180487
 127     0.0035691266190938
 128    -0.0030117364721615
 129    -0.0009412583358429
 130     0.0030479856556023
 131    -0.0059600740771309
 132    -0.0009740355150396
 133     0.0020876222469960
 134     0.0205079917879900
 135    -0.0245724676247405
 136     0.0026247817519144
 137    -0.0020499286799146
 138     0.0130415530476524
 139    -0.0295539685942959
 140    -0.0024891805266398
 141    -0.0076066503050289
 142    -0.0034347355793189
 143     0.0019247151810998
 144    -0.0112670963907275
 145     0.0077973802854874
 146    -0.0030932801488944
 147     0.0887823022648950
 148     0.0144038581556364
 149     0.1005832396933559
 150    -0.0549476060288637
 151     0.0017371288998835
 152     0.0000057288792932
 153     0.0304755031429595
 154     0.1906369838088248
 155    -0.0034890344289067
 156    -0.1687856786838658
 157    -0.0658529784114826
 158     0.0075093633935528
 159    -0.0918819885554677
 160    -0.0487632623655103
 161    -0.0932318371469192
 162    -0.0637860790072398
 163     0.1596367015598618
 164     0.0011435814558926
 165    -0.1716107516855118
 166    -0.0683664600292718
 167    -0.0446162640350684
 168     0.0656594298477601
 169    -0.0003614484005110
 170    -0.0022411288778601
 171     0.0254509957512521
 172    -0.5217358639543150
 173    -0.0024267978175365
 174    -0.1813295864602538
 175    -0.0914229266215770
 176     0.0079069263996780
 177    -0.0890853538938575
 178     0.0485131225195943
 179     0.0937874833203203
 180    -0.0658661919588165
 181     0.1710038894259670
 182    -0.0062322763315870
 183    -0.1716258328975916
 184    -0.0685234918970671
 Sym= 93A
 Ene= -0.007736
 Spin= Alpha
 Occup= 2.000000
  1    -0.0057240090199492
  2    -0.0938506666033291
  3    -0.0461130500707195
  4     0.0936186106324072
  5    -0.0604815508152420
  6     0.1617374995870342
  7     0.0012211083520797
  8    -0.1732681314173997
  9     0.0636743838838234
 10     0.0411241134962007
 11     0.0662367195840488
 12    -0.0006776765886507
 13     0.0040495161994923
 14     0.0280917451188537
 15    -0.5197428161565002
 16     0.0047255461888344
 17    -0.1821205527401331
 18     0.0874882400514048
 19    -0.0063505586481259
 20    -0.0885683787472850
 21     0.0456741324460766
 22    -0.0945947172572678
 23    -0.0642034676535226
 24     0.1832177448604025
 25     0.0083553652359981
 26    -0.1733591705914465
 27     0.0639994986940199
 28    -0.0996736350228214
 29    -0.0575223912909101
 30     0.0031826642052335
 31    -0.0005809031065776
 32     0.0263149721349217
 33     0.1771145782533136
 34     0.0059540774537767
 35    -0.1689483372612431
 36     0.0612871596279815
 37     0.0290657542237125
 38     0.0026800508748678
 39     0.0251682961260681
 40     0.0022573904718232
 41     0.0031735139283397
 42    -0.0045133199579332
 43    -0.0012354854321068
 44    -0.0014992703725238
 45    -0.0007787671909061
 46     0.0002368288368436
 47     0.0036829178492229
 48     0.0003065286890189
 49    -0.0004127180653847
 50    -0.0010437949739504
 51     0.0003767420502321
 52     0.0006564126991981
 53    -0.0005883278260040
 54    -0.0006289513097787
 55     0.0005599880114850
 56     0.0009398730149282
 57    -0.0031468021844816
 58    -0.0001844820373259
 59     0.0007501036712263
 60    -0.0002243917431348
 61     0.0011205048689564
 62     0.0013175433428814
 63    -0.0027831409237871
 64     0.0038579147163982
 65    -0.0216732940550353
 66    -0.0019215748390511
 67    -0.0248217209391807
 68    -0.0023172419354408
 69     0.0071699915509344
 70     0.0037728212899337
 71     0.0955791007293583
 72    -0.0132060457324950
 73    -0.0070113827770234
 74    -0.0013778559679466
 75    -0.0119585196677269
 76     0.0107175132254629
 77    -0.0027299746491776
 78    -0.0157064146665713
 79    -0.0340587853901359
 80     0.0026465041168313
 81     0.0027641486496797
 82    -0.0230003627718380
 83    -0.0290430690372847
 84    -0.0023067483816996
 85     0.0006364002909231
 86     0.0037343866941510
 87     0.0052047932024485
 88     0.0009288560337290
 89    -0.0025961596799917
 90     0.0083493936424426
 91     0.0139479931815088
 92     0.0014392665973904
 93    -0.0010475356396485
 94     0.0144873250645629
 95     0.0386178056556313
 96    -0.0015811055677659
 97    -0.0001028664435528
 98    -0.0011974586058032
 99    -0.0193437754586199
 100     0.0010784387834138
 101    -0.0018452135687548
 102     0.0012343779184022
 103    -0.0183507258844501
 104     0.0025267859966221
 105     0.0015405449223908
 106     0.0015638279290175
 107    -0.0185928148652494
 108    -0.0021138525860740
 109    -0.0012362933507113
 110     0.0012648010005417
 111     0.0166617719454071
 112    -0.0021276634611900
 113     0.0014631474691258
 114     0.0009711337756857
 115     0.0163902706313380
 116     0.0023275252996369
 117     0.0000828325540870
 118    -0.0008852639774043
 119     0.0212826264264295
 120     0.0011148140810646
 121     0.0008857452654216
 122     0.0125251550403374
 123    -0.0338555517649677
 124    -0.0014421530443589
 125     0.0024332323942929
 126     0.0080833792892492
 127    -0.0134812612811892
 128     0.0009582308580129
 129    -0.0007985723698979
 130     0.0043333067104974
 131    -0.0064085839351644
 132     0.0007810664001944
 133    -0.0025271619563252
 134    -0.0197356672213731
 135     0.0255227418934458
 136    -0.0018826716711564
 137     0.0023346073847692
 138    -0.0136670654166210
 139     0.0296403812508191
 140     0.0022406054183447
 141     0.0057942294628598
 142    -0.0020288867268721
 143     0.0125285869840252
 144     0.0089397660358995
 145    -0.0059230014352497
 146     0.0035379372988553
 147    -0.0817518788856560
 148    -0.0110564670713761
 149    -0.0831858594465327
 150     0.0489039420393656
 151    -0.0029126733458892
 152     0.0000083024257615
 153    -0.0211220900183649
 154    -0.1458777483622731
 155     0.0048351347689558
 156     0.1416925591164113
 157     0.0504544161102873
 158    -0.0045275271926333
 159     0.0787878413273752
 160     0.0382068978845037
 161     0.0786230618746704
 162     0.0503661109336873
 163    -0.1372414360216350
 164     0.0009432026436179
 165     0.1455886407060494
 166     0.0525908453745910
 167     0.0337311794598373
 168    -0.0556327421322777
 169     0.0005792609209015
 170     0.0032552213636820
 171    -0.0240363066017637
 172     0.4352402579612250
 173     0.0039624158521125
 174     0.1527160559782477
 175     0.0727344469007465
 176    -0.0049819901740147
 177     0.0744290160098634
 178    -0.0377602528088114
 179    -0.0794206384613540
 180     0.0532305888121536
 181    -0.1546680594190091
 182     0.0068527779270916
 183     0.1456455653660354
 184     0.0527337788678450
 Sym= 94A
 Ene= -0.004824
 Spin= Alpha
 Occup= 2.000000
  1     0.0007743979372006
  2    -0.0177290394926084
  3    -0.0023704274104488
  4    -0.0026896987401906
  5     0.0090443356748044
  6    -0.0754390620478489
  7     0.0343458024143590
  8     0.0007313741288233
  9     0.0014200767099844
 10     0.0000529301969698
 11     0.0002153415727199
 12    -0.0030877581398639
 13     0.0256959861376937
 14     0.0001175206652999
 15    -0.0012967271986485
 16     0.0329139722499192
 17    -0.0004458150044297
 18     0.0001809179852864
 19    -0.0007567973776616
 20     0.0172289443268480
 21    -0.0021991944319302
 22    -0.0032173258715821
 23    -0.0093139320086052
 24     0.0765923123724732
 25     0.0343169359215091
 26    -0.0017399294220820
 27    -0.0012284556995593
 28    -0.0004136894781029
 29    -0.0001072242276392
 30     0.0277947303878530
 31     0.0082997419848708
 32    -0.0001147495478974
 33     0.0003073100443867
 34     0.0320058241111952
 35    -0.0005554638504637
 36     0.0000122142335320
 37     0.0048452397231025
 38     0.0013083271958724
 39    -0.0048339393381304
 40    -0.0012772469925711
 41     0.0006389176416318
 42    -0.0007718896515982
 43    -0.0013258271483179
 44     0.0003626159926870
 45    -0.0007888028955750
 46    -0.0000858259177806
 47     0.0007116619624606
 48     0.0003051810854192
 49    -0.0008684114938389
 50    -0.0001958189624729
 51     0.0004372802710090
 52     0.0001238445886513
 53     0.0002714638490937
 54     0.0000927363442191
 55    -0.0006724423333137
 56    -0.0004746257879457
 57     0.0043742771996322
 58     0.0022177099705830
 59    -0.0047348785683564
 60    -0.0008384135177642
 61    -0.0083313395465843
 62     0.0032582469590607
 63     0.0036218742317110
 64    -0.0051148293311240
 65    -0.0405035568029721
 66    -0.0100235812956245
 67     0.0322632415832804
 68     0.0096697671372194
 69     0.0001602792512102
 70    -0.0087663449239301
 71     0.0001616149399038
 72     0.0002000569291239
 73     0.0001415838242915
 74     0.0001168403495606
 75    -0.0021064170575339
 76    -0.0002056477946377
 77    -0.0010593906159199
 78    -0.0010324848697084
 79     0.0011501635697990
 80     0.0007392868062189
 81    -0.0000699937491683
 82    -0.0021430071646223
 83     0.0018042706057621
 84     0.0003771045263342
 85     0.0005396240449840
 86     0.0009456656192138
 87     0.0005124117948451
 88    -0.0003005653010067
 89    -0.0001595493675531
 90     0.0021562988695651
 91     0.0025652532239978
 92    -0.0004803846368385
 93    -0.0001565865134017
 94    -0.0010409644212606
 95    -0.0001134286283134
 96     0.0004866470373829
 97     0.0001222312423749
 98     0.0006095706230959
 99    -0.0051858149142891
 100    -0.0001398335677814
 101     0.0004391544038463
 102    -0.0005245426110505
 103     0.0000003654335271
 104     0.0007199189286255
 105    -0.0000221593406807
 106    -0.0005533797861425
 107    -0.0003319145272735
 108     0.0003353873346170
 109    -0.0011269659401604
 110     0.0018883687885990
 111     0.0048816082306790
 112    -0.0011278092466175
 113     0.0005273829757844
 114     0.0015505271634818
 115     0.0048627894071382
 116     0.0001507331246954
 117     0.0009948474048649
 118    -0.0010197052952404
 119     0.0008236061479271
 120     0.0018195125297255
 121    -0.0018932934320540
 122     0.0095375969240635
 123    -0.0102250929222725
 124    -0.0027358465887172
 125     0.0007557513598705
 126    -0.0063681573930030
 127     0.0057241436098481
 128     0.0014474482730327
 129     0.0017804907425847
 130     0.0019748250002421
 131    -0.0105893419189319
 132     0.0023523971584192
 133    -0.0015263307397343
 134     0.0118777983312099
 135     0.0190523506161943
 136    -0.0021100837834279
 137    -0.0070280821050255
 138     0.0040219615995494
 139     0.0149465764796991
 140    -0.0050495905037543
 141     0.0006654948641315
 142    -0.0067050436990695
 143     0.0022185509283173
 144     0.0016648956599097
 145     0.0011730189617358
 146     0.0656901007000116
 147    -0.0102069667487173
 148    -0.0013434062831622
 149    -0.0000543200894912
 150     0.0046260252156779
 151     0.2022130414812360
 152    -0.0609638252897153
 153     0.0021993662704830
 154     0.0078404158273282
 155    -0.2328011264122833
 156     0.0028410504528482
 157    -0.0016119246904472
 158    -0.0043534472388886
 159    -0.1244049867145279
 160    -0.0179885358077813
 161     0.0241734473670292
 162     0.0660000989341972
 163    -0.5635599366947084
 164    -0.2499913971392722
 165     0.0145607447040635
 166    -0.0123260045577953
 167    -0.0021427191617338
 168    -0.0017481789354448
 169    -0.0223385425381034
 170    -0.1870078266042136
 171    -0.0026956234312879
 172     0.0108892471133235
 173    -0.2393281162326240
 174     0.0052109958370616
 175    -0.0010814297520779
 176     0.0067827929823966
 177     0.1298763623055235
 178    -0.0152648363036025
 179     0.0187873821936345
 180    -0.0675128547305527
 181     0.5431831321505937
 182    -0.2498853849998434
 183    -0.0035376412635809
 184     0.0070985603123320
 Sym= 95A
 Ene= -0.004800
 Spin= Alpha
 Occup= 2.000000
  1     0.0039918091936405
  2    -0.1236852435713955
  3    -0.0184906229899383
  4    -0.0248366897353301
  5     0.0656989456878591
  6    -0.5661920318385162
  7     0.2500851564207764
  8     0.0159684366749217
  9     0.0133162650781963
 10     0.0026913748134942
 11    -0.0022800999288500
 12    -0.0223387710607770
 13     0.1869587526054907
 14    -0.0034304678139413
 15     0.0136976936887464
 16     0.2392736698649874
 17     0.0066323828246405
 18     0.0017182720736204
 19    -0.0071010562742142
 20     0.1305062573200156
 21    -0.0147764091129709
 22    -0.0181201767980708
 23    -0.0677004520886290
 24     0.5402907446342726
 25     0.2496906601763964
 26    -0.0021356133858631
 27    -0.0061673627242562
 28     0.0012599730133117
 29     0.0044380743550708
 30     0.2022998208667313
 31     0.0610248380908583
 32     0.0026333481579950
 33     0.0103426696992822
 34     0.2326527901945055
 35     0.0038444578342071
 36     0.0024336318591865
 37     0.0322387020740883
 38     0.0096167073233309
 39    -0.0406116803568807
 40    -0.0100828093830168
 41     0.0035540245671426
 42    -0.0050807892054601
 43    -0.0083588376717199
 44     0.0031672572313521
 45    -0.0047123599857623
 46    -0.0008398591142407
 47     0.0043617527352552
 48     0.0022432120352467
 49    -0.0004612426877172
 50    -0.0004352961184711
 51     0.0001558924044879
 52     0.0000626199884218
 53     0.0003772158939459
 54     0.0001022928588313
 55    -0.0007219892806944
 56    -0.0000722731033948
 57    -0.0004871997709411
 58    -0.0003070117454815
 59     0.0005061834787604
 60     0.0001445959586095
 61     0.0009622657133614
 62    -0.0005199127630308
 63    -0.0003448871530229
 64     0.0006261309533085
 65     0.0062924391601963
 66     0.0014798591651110
 67    -0.0039962365882031
 68    -0.0013352077207127
 69     0.0010550256866196
 70    -0.0656207164911142
 71    -0.0108659723109331
 72     0.0013160886624608
 73     0.0006651744002785
 74     0.0069844742097791
 75     0.0029232625382304
 76    -0.0017113237831112
 77    -0.0070556538575329
 78    -0.0038047406259401
 79     0.0152748624883313
 80     0.0050843934540896
 81    -0.0017396127519490
 82    -0.0118833683084748
 83     0.0194437955332030
 84     0.0022538364847243
 85     0.0017172472771770
 86    -0.0022989678186921
 87    -0.0110746645681920
 88    -0.0023923585692857
 89     0.0008747787997767
 90     0.0059986081054246
 91     0.0051028535441882
 92    -0.0014565443487696
 93    -0.0019835034667711
 94    -0.0097277128034448
 95    -0.0106506773217997
 96     0.0027685762354530
 97     0.0010297243653556
 98     0.0008965218754755
 99     0.0023090429317984
 100    -0.0019057834611390
 101     0.0004313849653986
 102    -0.0014521720658273
 103     0.0050768482187857
 104    -0.0003640682862886
 105    -0.0011737440069375
 106    -0.0018115017577503
 107     0.0051907063959272
 108     0.0010866170410142
 109     0.0002977854123159
 110     0.0000443008583938
 111    -0.0017155658103827
 112    -0.0000369109490379
 113     0.0003169370136429
 114     0.0001141772290718
 115    -0.0013714942028499
 116    -0.0008034960663869
 117    -0.0001574980670316
 118    -0.0003602360938742
 119    -0.0056446283662547
 120    -0.0003638800096306
 121     0.0003768262690252
 122    -0.0016000127976345
 123     0.0027559521722063
 124     0.0002633595396147
 125    -0.0003839540786866
 126    -0.0004680153129432
 127     0.0010952980590262
 128     0.0000869132300731
 129     0.0000627479330499
 130    -0.0015349163870462
 131     0.0034951748618172
 132    -0.0003497783801177
 133     0.0003790470741307
 134    -0.0011140350672429
 135    -0.0034824488776775
 136     0.0002181831159336
 137     0.0008741522392116
 138    -0.0000401487511465
 139    -0.0030025933470749
 140     0.0006508979491789
 141    -0.0000421057072003
 142     0.0017642815159423
 143    -0.0028267067693420
 144    -0.0002616603049890
 145    -0.0001439413777307
 146    -0.0092516462746602
 147     0.0030584529715286
 148     0.0001676621331366
 149     0.0005943492719460
 150    -0.0013541680007736
 151    -0.0276947512831561
 152     0.0084237649005218
 153    -0.0007842028228709
 154    -0.0022068872460572
 155     0.0318483162074090
 156    -0.0014707447196437
 157     0.0005489745640110
 158     0.0003688703657010
 159     0.0163053943265606
 160     0.0026376517795526
 161    -0.0040341874905103
 162    -0.0090206736849882
 163     0.0795592713696694
 164     0.0342588355216208
 165    -0.0034590324647472
 166     0.0021036722174152
 167     0.0006155206597032
 168     0.0007680943148156
 169     0.0030410815690263
 170     0.0256082253213149
 171     0.0009602532924357
 172    -0.0046650613432909
 173     0.0327430196618008
 174    -0.0020703647194966
 175     0.0002074414154999
 176    -0.0011501074150582
 177    -0.0184923037537934
 178     0.0019172001788785
 179    -0.0018454778591979
 180     0.0092408604007645
 181    -0.0720390017241427
 182     0.0342189489991429
 183    -0.0009632861559982
 184    -0.0005826491587485
 Sym= 96A
 Ene= 0.030507
 Spin= Alpha
 Occup= 2.000000
  1    -0.0065621661817345
  2     0.0105243740346179
  3    -0.0784895648589584
  4    -0.0103571012866787
  5    -0.0450264407742353
  6    -0.1743865009318557
  7     0.0221543067098237
  8     0.0676311357374927
  9     0.1973176885292296
 10     0.0590484142655916
 11    -0.0059991276372603
 12    -0.0003021491246087
 13    -0.0001246832217422
 14     0.0007590193775986
 15     0.1395591696936384
 16    -0.0033423226876349
 17     0.1202983752808605
 18     0.0639009102760295
 19    -0.0075076196332054
 20     0.0094688695969545
 21     0.0787663798658003
 22     0.0106439349550663
 23    -0.0468627500844245
 24    -0.1794940414289688
 25    -0.0249703554414910
 26     0.0666877586037928
 27     0.1997494779610217
 28     0.1385856200011067
 29    -0.1272401882417049
 30    -0.0028145032732184
 31    -0.0016304683510952
 32    -0.0172065372677955
 33     0.2284184780246474
 34     0.0038190373495387
 35    -0.1419317384179256
 36     0.0024309717960158
 37     0.0181046640677911
 38     0.0053562332064076
 39    -0.0034906777072437
 40     0.0010617621995528
 41    -0.0041980762710606
 42    -0.0038861249667212
 43    -0.0014142115612734
 44     0.0034877820337216
 45    -0.0059611486555838
 46    -0.0004192458302218
 47    -0.0012524299861348
 48    -0.0007964364962314
 49     0.0037697576143933
 50    -0.0006417744006304
 51    -0.0061317656879650
 52     0.0008008943438572
 53    -0.0060978362671670
 54     0.0008399977697035
 55     0.0037286882345564
 56    -0.0006720751491047
 57    -0.0013408129619041
 58    -0.0008392756576694
 59    -0.0060285446448326
 60    -0.0004116452560195
 61    -0.0014662207189513
 62     0.0034822116445956
 63    -0.0042745518776728
 64    -0.0038874101347418
 65    -0.0031679678743245
 66     0.0011786023107228
 67     0.0181939197329346
 68     0.0052750172557177
 69    -0.1232054553205897
 70     0.0126098760238271
 71     0.2420565408260943
 72     0.0907036604557381
 73     0.0209378204519798
 74     0.0431645925879389
 75     0.0950223848928963
 76    -0.0354532519606157
 77    -0.0131426696588707
 78    -0.0560026856679158
 79    -0.0972823305528197
 80     0.0206872872034591
 81    -0.0000343447720330
 82    -0.0465257342161482
 83    -0.1056786479137919
 84     0.0030145535639812
 85     0.0022783943973956
 86    -0.0338588473803055
 87    -0.0626721422706409
 88    -0.0096911566285857
 89     0.0071476873158527
 90    -0.0297321668479072
 91    -0.0501725591437056
 92     0.0001049917282727
 93     0.0009758036252949
 94     0.0590315242588576
 95     0.1311076782288437
 96    -0.0075108331866880
 97     0.0020654061345804
 98    -0.0068352694128278
 99     0.1050148725888448
 100    -0.0054440949052575
 101    -0.0082106922548887
 102     0.0115254688195728
 103    -0.0737281055029038
 104     0.0029668049624184
 105     0.0098166573619533
 106     0.0095821238858851
 107    -0.0741388857976887
 108    -0.0008571510266974
 109     0.0099790956368580
 110    -0.0099092764458233
 111    -0.0751904966101948
 112     0.0010449899977269
 113    -0.0082572326990568
 114    -0.0118442408283594
 115    -0.0747484003586994
 116    -0.0030355953257086
 117     0.0021545223017225
 118     0.0070846036536666
 119     0.1043425449494416
 120     0.0052869317446858
 121     0.0009827471781311
 122    -0.0597784666116888
 123     0.1333216358619350
 124     0.0076358832322343
 125     0.0071689624359285
 126     0.0298145811016059
 127    -0.0504175873914751
 128     0.0000103989684601
 129     0.0023151353643184
 130     0.0337927958618406
 131    -0.0627184337217050
 132     0.0097393103640198
 133    -0.0000889593168377
 134     0.0471157851152592
 135    -0.1079807658330257
 136    -0.0033863281827235
 137    -0.0130848176584013
 138     0.0568554069876264
 139    -0.0994134597277285
 140    -0.0209998818918500
 141     0.0213883487176185
 142    -0.0433244948166956
 143     0.0959143900956350
 144     0.0362466586513825
 145    -0.1254956925208056
 146    -0.0146941725254382
 147     0.2464236681710054
 148    -0.0919223988222657
 149    -0.1406660539381883
 150    -0.1297403499029544
 151    -0.0015293339153939
 152    -0.0006178340097024
 153    -0.0179395320567716
 154     0.2322992197447042
 155    -0.0028243120394109
 156    -0.1446742735008557
 157    -0.0026570342325837
 158     0.0067292307682070
 159     0.0105249717321410
 160    -0.0798175116829595
 161     0.0105573860583373
 162    -0.0460843615496348
 163    -0.1789592535964785
 164    -0.0235107802560171
 165     0.0688738010112017
 166    -0.2013359188659638
 167    -0.0599715745770595
 168    -0.0060818560794895
 169    -0.0000273969808942
 170    -0.0001394195961882
 171     0.0008932710246115
 172     0.1423039057395111
 173     0.0025943229613853
 174     0.1224853507954214
 175    -0.0646810471897950
 176     0.0073608709838986
 177     0.0098203043027499
 178     0.0799471004751949
 179    -0.0107473676974272
 180    -0.0473090593773066
 181    -0.1807795784636752
 182     0.0245190655268457
 183     0.0678212100747875
 184    -0.2023726450772553
 Sym= 97A
 Ene= 0.033193
 Spin= Alpha
 Occup= 2.000000
  1     0.0043010381582760
  2    -0.0087449403180589
  3     0.0803472646947782
  4     0.0079518364344628
  5     0.0452494834633391
  6     0.1711792236472434
  7    -0.0243048404500245
  8    -0.0646740020930111
  9    -0.2075679794511960
 10    -0.0585825581144564
 11     0.0042786530368360
 12     0.0005580050886367
 13     0.0003681502699074
 14    -0.0052126341342008
 15    -0.1470129563427660
 16     0.0028474150651337
 17    -0.1294446262845519
 18    -0.0630559225334856
 19     0.0053123318204735
 20    -0.0077508020823380
 21    -0.0805974687547092
 22    -0.0082023782787269
 23     0.0471405026680569
 24     0.1789432530867327
 25     0.0285341437317498
 26    -0.0643889559613682
 27    -0.2108565451339028
 28    -0.1460254760016146
 29     0.1400470117436277
 30     0.0030076001113610
 31     0.0028953677691660
 32     0.0242388321445556
 33    -0.2209286873834417
 34    -0.0042408808175994
 35     0.1593176687659516
 36     0.0046988213634115
 37    -0.0238779533217669
 38    -0.0053074058274876
 39    -0.0084480866739081
 40    -0.0038511023375443
 41     0.0012975862595528
 42     0.0049553810295322
 43     0.0050802588425175
 44    -0.0028056216020904
 45     0.0083568426296702
 46    -0.0000129537651473
 47     0.0000003445034477
 48     0.0017569954235863
 49     0.0014648924366517
 50     0.0020129024587099
 51    -0.0015584019467760
 52    -0.0029802386783524
 53     0.0016435758720102
 54     0.0029575204262029
 55    -0.0014937992628644
 56    -0.0019821001306165
 57    -0.0000895881694753
 58    -0.0017719247551488
 59    -0.0081835177148269
 60     0.0000196460453853
 61    -0.0050197198054672
 62     0.0026817423271982
 63    -0.0012863150470229
 64    -0.0048070217030477
 65     0.0086096256820916
 66     0.0038615512997574
 67     0.0233550036361359
 68     0.0050763965715486
 69     0.1350876576010336
 70    -0.0176134714177310
 71    -0.2794124898640805
 72    -0.0993107902429304
 73    -0.0237793319220649
 74    -0.0247631998393012
 75    -0.0429873634217673
 76     0.0379497389782985
 77     0.0162871717592623
 78     0.0628044462474962
 79     0.1069209544401875
 80    -0.0208627350838346
 81    -0.0028647110274057
 82     0.0520319498261128
 83     0.1152222257433762
 84    -0.0047884388843178
 85    -0.0093893358837342
 86     0.0035081145001100
 87     0.0131356086035729
 88     0.0099741819210551
 89    -0.0007729865368121
 90    -0.0004308404925464
 91     0.0030634188141866
 92     0.0069087126350135
 93    -0.0011712246022120
 94    -0.0535645356621850
 95    -0.1278529283872743
 96     0.0070594511285435
 97    -0.0014471288597448
 98     0.0021936768277502
 99     0.0351088968930905
 100     0.0007606167130275
 101     0.0050236602946277
 102    -0.0065176661889214
 103     0.0513387547976140
 104    -0.0068308985029100
 105    -0.0058799488048389
 106    -0.0047271413123716
 107     0.0509584241243645
 108     0.0072441270101985
 109     0.0057560106502107
 110    -0.0047632871411774
 111    -0.0498399211229377
 112     0.0073151891224094
 113    -0.0048676829563077
 114    -0.0064814962558547
 115    -0.0502785844202844
 116    -0.0067110410163841
 117     0.0013743320781140
 118     0.0020380617867268
 119    -0.0366852580995814
 120     0.0007111518853940
 121     0.0011434480908816
 122    -0.0524342475157196
 123     0.1257354448551223
 124     0.0068996819342762
 125     0.0006887794254360
 126    -0.0008128744474682
 127    -0.0023340733437222
 128     0.0069730677931334
 129     0.0092472633021961
 130     0.0029504198066173
 131    -0.0120091962698975
 132     0.0097208035902526
 133     0.0027450005047823
 134     0.0510022727963958
 135    -0.1139048813477453
 136    -0.0050592554749571
 137    -0.0157110445336951
 138     0.0616428886766631
 139    -0.1056476883157344
 140    -0.0204648003077529
 141     0.0234464575485818
 142    -0.0238624595527210
 143     0.0416363655574305
 144     0.0374354415314852
 145    -0.1330739000968276
 146    -0.0193199615980229
 147     0.2750976738936196
 148    -0.0973255884986734
 149    -0.1433368709953760
 150    -0.1381333797453525
 151    -0.0016000379841187
 152     0.0004182621773417
 153    -0.0243155839798098
 154     0.2173369060502433
 155    -0.0029998345852029
 156    -0.1570744566151273
 157     0.0044054317303289
 158     0.0042870510411068
 159     0.0084333481052403
 160    -0.0790198917625941
 161     0.0078394134234708
 162    -0.0448299588044338
 163    -0.1699643616518018
 164    -0.0248978225156854
 165     0.0637050379222846
 166    -0.2049097761214464
 167    -0.0575403446010470
 168    -0.0041888645673874
 169    -0.0002496840927079
 170     0.0001152742559138
 171     0.0052531538386315
 172     0.1449951725594443
 173     0.0019889575579112
 174     0.1274838169729845
 175    -0.0616994371423566
 176     0.0049368399821366
 177     0.0078028517733322
 178     0.0791232044897554
 179    -0.0079868907845307
 180    -0.0459952545613802
 181    -0.1742647542906087
 182     0.0271931095787864
 183     0.0633315898515693
 184    -0.2065674197178668
 Sym= 98A
 Ene= 0.070636
 Spin= Alpha
 Occup= 2.000000
  1     0.0057440484947627
  2    -0.0038629036179710
  3    -0.0183275662868840
  4     0.0084824540514882
  5    -0.0076224918453802
  6    -0.0166223992325067
  7     0.0175681811541214
  8    -0.0180951790157893
  9     0.0702859514276144
 10     0.0097397184336237
 11     0.0060359418031533
 12    -0.0009231154989419
 13    -0.0001366742477347
 14     0.0113818997757979
 15     0.0662066739251763
 16     0.0071348570255081
 17     0.0772150727925143
 18     0.0050777945156088
 19     0.0055622880689801
 20    -0.0021533151570784
 21     0.0179545401118814
 22    -0.0094134183773812
 23    -0.0074751346354281
 24    -0.0280616097366885
 25    -0.0241830269641950
 26    -0.0099065263600752
 27     0.0743129821916326
 28     0.0340890196332815
 29    -0.0486857925485370
 30     0.0007071298027788
 31    -0.0043521558344621
 32    -0.0191580824817404
 33    -0.0001714881318160
 34     0.0021849189603882
 35    -0.0825998999056585
 36    -0.0247139597241558
 37     0.0238425759184441
 38    -0.0011617455937548
 39     0.0500059994936324
 40     0.0115382797784624
 41     0.0074482826900275
 42    -0.0051582125233027
 43    -0.0113334229456952
 44    -0.0021438414758448
 45    -0.0061344355760019
 46     0.0007926440077478
 47     0.0002518478638232
 48    -0.0014424797420156
 49    -0.0018641030691978
 50    -0.0027803482817240
 51     0.0076939666794319
 52     0.0047750561900056
 53     0.0076513880301975
 54     0.0047884298141177
 55    -0.0018220236609513
 56    -0.0027434490600637
 57     0.0001651846487465
 58    -0.0014807412585721
 59    -0.0061066616535244
 60     0.0007616614177488
 61    -0.0112991865458831
 62    -0.0022211424805059
 63     0.0074808078144772
 64    -0.0051311826332367
 65     0.0498024856614840
 66     0.0114682212730334
 67     0.0242430058329169
 68    -0.0010828943330652
 69    -0.0587628570544475
 70     0.0170245578193053
 71     0.1493852742931372
 72     0.0396800936086519
 73     0.0136199598585273
 74    -0.0892748500982532
 75    -0.2394814738289586
 76    -0.0113863032585265
 77    -0.0123697071721661
 78    -0.0020861680863630
 79     0.0168504076176244
 80     0.0006047483113948
 81     0.0099950511293068
 82     0.0062906808260454
 83     0.0211157109554220
 84     0.0021406357635426
 85     0.0212238626247522
 86     0.1108568852230034
 87     0.1982818887381048
 88    -0.0089367102057405
 89    -0.0154833117383863
 90     0.1092618625467271
 91     0.1855884665560646
 92    -0.0203143910688812
 93     0.0013476922328195
 94    -0.0768525133706198
 95    -0.1648691052001882
 96     0.0109664454501078
 97    -0.0007203216081615
 98     0.0099063582236269
 99    -0.3802723587477320
 100     0.0122102419090116
 101     0.0071859823314047
 102    -0.0193742920428344
 103     0.2130746536121667
 104    -0.0027962211721790
 105    -0.0095274690221991
 106    -0.0167609346073428
 107     0.2055588599544401
 108    -0.0034409774978114
 109    -0.0096146497435128
 110     0.0173436362682422
 111     0.2059919608474899
 112     0.0033154138693455
 113     0.0071005013269536
 114     0.0199140517232693
 115     0.2134398844227283
 116     0.0026518474297077
 117    -0.0009763103028281
 118    -0.0106785108248368
 119    -0.3805478395079511
 120    -0.0116851508579789
 121     0.0013727657862270
 122     0.0766173886625207
 123    -0.1648606862421776
 124    -0.0110414253811581
 125    -0.0153721511926762
 126    -0.1095346929551310
 127     0.1865502373776187
 128     0.0205823968982790
 129     0.0213225759871415
 130    -0.1104145444319217
 131     0.1979260912604435
 132     0.0089714652849943
 133     0.0098467401478285
 134    -0.0059906134974369
 135     0.0204482231367231
 136    -0.0021985686177111
 137    -0.0122730415394152
 138     0.0018441606977487
 139     0.0171630956664707
 140    -0.0004258632341215
 141     0.0134673760277159
 142     0.0891382798403037
 143    -0.2396924060338872
 144     0.0110144237162375
 145    -0.0588864768143852
 146    -0.0179315580645390
 147     0.1496980578209150
 148    -0.0395716935961856
 149    -0.0339730220313272
 150    -0.0489435816811368
 151     0.0010245602444185
 152     0.0034451120370553
 153    -0.0194182034598326
 154    -0.0000350548333600
 155    -0.0015135024513352
 156    -0.0830090607471605
 157     0.0244386526550880
 158    -0.0057716038297415
 159    -0.0038909096928917
 160    -0.0182829844279849
 161    -0.0085241415939928
 162    -0.0077777290599169
 163    -0.0170010861823102
 164    -0.0179625638187224
 165    -0.0181221857880928
 166    -0.0708267190542723
 167    -0.0096902398041571
 168     0.0060628999736339
 169    -0.0007817924416857
 170     0.0001230607046167
 171     0.0114579570677338
 172     0.0665297516062236
 173    -0.0073735270443174
 174     0.0774643184639876
 175    -0.0047737008363474
 176    -0.0057094407467363
 177    -0.0021467787369363
 178     0.0179451014318126
 179     0.0094687429451683
 180    -0.0073426086455684
 181    -0.0276829574426715
 182     0.0240647089410372
 183    -0.0099604767012237
 184    -0.0738445376072395
 Sym= 99A
 Ene= 0.098448
 Spin= Alpha
 Occup= 2.000000
  1     0.0132535166892354
  2    -0.0075157181768538
  3     0.0069068825697245
  4     0.0056565978622674
  5     0.0049570191529197
  6    -0.0109158606573968
  7     0.0743087592777466
  8    -0.0314442852731152
  9    -0.0647821312459804
 10    -0.0133491026118583
 11     0.0152111224344713
 12    -0.0077748181938273
 13     0.0025543012483323
 14     0.0018048906466695
 15     0.0281359738495863
 16     0.0055528921624858
 17     0.0194700873554429
 18    -0.0598821936268952
 19     0.0076518636588752
 20    -0.0036629706111603
 21    -0.0134132429145819
 22    -0.0087994002519994
 23    -0.0049113811727044
 24    -0.0568777924068184
 25    -0.1027980154759110
 26    -0.0059591011594217
 27    -0.0083272370079659
 28    -0.0070971464067443
 29     0.0087987980252216
 30     0.0026843540862498
 31     0.0011441470904502
 32    -0.0129134265338469
 33     0.0468706522470922
 34     0.0482050321913776
 35    -0.0339909526286602
 36     0.0751886849127646
 37     0.0087877150479163
 38     0.0036824730495490
 39    -0.0023912995718174
 40     0.0024895962414892
 41     0.0016572639830662
 42    -0.0007470142571771
 43     0.0007409412769400
 44    -0.0047481662792984
 45    -0.0070160650528145
 46     0.0094397008631933
 47    -0.0064226638322589
 48     0.0139641309446714
 49     0.0053196828828085
 50    -0.0087982112360784
 51     0.0074362204466816
 52    -0.0071596134935702
 53     0.0080201926171356
 54    -0.0089635137372060
 55     0.0060691178029845
 56    -0.0105318967835912
 57    -0.0069160839884965
 58     0.0140509388018732
 59    -0.0076064207724032
 60     0.0093775412080126
 61     0.0007539986804169
 62    -0.0054904183509787
 63     0.0020287882249284
 64    -0.0008168596052622
 65    -0.0021109973631391
 66     0.0028501992108052
 67     0.0107851653022462
 68     0.0042846183017985
 69     0.0048575001626441
 70    -0.0031416281326632
 71     0.0135844296557281
 72    -0.0114215792694097
 73    -0.0025778921254683
 74     0.0016441678330453
 75     0.0079563158903361
 76     0.0105985558790593
 77    -0.0037965357687752
 78     0.0888930038487769
 79     0.2196661962227176
 80    -0.0121977405340612
 81    -0.0074948801646338
 82    -0.0979928272727701
 83    -0.2138649865797090
 84     0.0100949519902948
 85     0.0061899917801836
 86    -0.0997447195789206
 87    -0.2156641517820559
 88     0.0182846341598563
 89     0.0089729218096689
 90     0.1020865747280994
 91     0.2121554858520396
 92    -0.0026817778443753
 93     0.0045222932432113
 94    -0.0002556539796566
 95     0.0026284348591074
 96     0.0046448696966383
 97    -0.0073881870292090
 98    -0.0004869198098447
 99     0.0038003813527613
 100    -0.0003694340501806
 101    -0.0037553802600414
 102    -0.0130175589214431
 103     0.2952816878610623
 104     0.0070952982309723
 105    -0.0080383038606536
 106     0.0043570143036597
 107    -0.3009535645492635
 108     0.0096809551069278
 109    -0.0092102984142762
 110    -0.0056023199148024
 111    -0.2989160021941842
 112    -0.0097970278685510
 113    -0.0048425125597794
 114     0.0145807010121376
 115     0.2965873330640339
 116    -0.0075220399693338
 117    -0.0074893372441817
 118     0.0003978608239862
 119     0.0039140464908894
 120    -0.0000571822715463
 121     0.0042878354832371
 122     0.0024027103203501
 123    -0.0015208206243476
 124    -0.0049070745018071
 125     0.0095365094661834
 126    -0.1207129316227418
 127     0.2541595084847014
 128     0.0041285101309285
 129     0.0064050493320775
 130     0.1156967105211166
 131    -0.2533550621994534
 132    -0.0211356327540268
 133    -0.0085505426536261
 134     0.1147968439247700
 135    -0.2513067708361189
 136    -0.0123104321830258
 137    -0.0046998393437543
 138    -0.1054723768823825
 139     0.2614514205347040
 140     0.0145025910103128
 141    -0.0032553755867661
 142    -0.0002083169426942
 143     0.0052264318414618
 144    -0.0120910630464103
 145     0.0053171983264956
 146     0.0037645598053272
 147     0.0170437190743113
 148     0.0129338558177947
 149     0.0087036535154196
 150     0.0105459676739887
 151     0.0034160600300844
 152    -0.0012763426354749
 153    -0.0153089368749587
 154     0.0547969964730526
 155    -0.0582210312564746
 156    -0.0415176039902839
 157    -0.0882495041266353
 158    -0.0158190390758530
 159    -0.0092051473034310
 160     0.0079115078692447
 161    -0.0070710774760502
 162     0.0059296422962025
 163    -0.0124774839291687
 164    -0.0892458588709137
 165    -0.0400971509253457
 166     0.0764290984593847
 167     0.0156696600262870
 168     0.0184789296469534
 169    -0.0093979512929393
 170    -0.0031511118061823
 171     0.0021632773732857
 172     0.0353602911882367
 173    -0.0076155052906802
 174     0.0261392138283954
 175     0.0708801971011821
 176    -0.0090695811951455
 177    -0.0043396395723983
 178    -0.0157776101032294
 179     0.0110050995356290
 180    -0.0058958879173924
 181    -0.0687092170158365
 182     0.1241052692794650
 183    -0.0081705592079540
 184     0.0082864379007092
 Sym= 100A
 Ene= 0.099262
 Spin= Alpha
 Occup= 2.000000
  1     0.0225118978464532
  2    -0.0151359829303948
  3     0.0120400663108261
  4     0.0146669360201484
  5     0.0068962988405692
  6    -0.0343422192334569
  7     0.1606444313444543
  8    -0.0755527786496459
  9    -0.0993177954440797
 10    -0.0222874379530661
 11     0.0327086773760642
 12    -0.0109794096662925
 13     0.0040949994544385
 14     0.0025088768705725
 15     0.0661679797034816
 16     0.0136159664601477
 17     0.0615630176803781
 18    -0.1057517278322368
 19     0.0147631023723416
 20    -0.0084024054021401
 21    -0.0213435128411069
 22    -0.0200234245657438
 23    -0.0063640808265168
 24    -0.1033637879266387
 25    -0.2034367033794094
 26    -0.0319889073812602
 27    -0.0191536163392798
 28    -0.0172103965206687
 29     0.0194820895173548
 30     0.0047807635166105
 31     0.0006937633256357
 32    -0.0226543217774784
 33     0.0788119716749716
 34     0.0676517078260441
 35    -0.0680589306386393
 36     0.1261406387483666
 37     0.0156203431866080
 38     0.0047788116834699
 39     0.0036275705200804
 40     0.0035392834661257
 41     0.0027303197502639
 42    -0.0009546564026462
 43     0.0006558751405010
 44    -0.0073111135119045
 45    -0.0047619282875187
 46     0.0000696912662305
 47    -0.0029329369571398
 48     0.0028971322494016
 49     0.0054131399901370
 50    -0.0128633408432204
 51     0.0041286869323515
 52    -0.0122640721238859
 53    -0.0029063022247000
 54     0.0115797944670205
 55    -0.0045522729740467
 56     0.0118247752865571
 57     0.0019716061873076
 58    -0.0000727501493474
 59     0.0036209281327345
 60     0.0017931244169501
 61    -0.0004991927112715
 62     0.0065074536131645
 63    -0.0025188686976220
 64     0.0007648061986578
 65    -0.0035206473379745
 66    -0.0030612206553996
 67    -0.0145301288643258
 68    -0.0043805015265320
 69     0.0068458273181171
 70    -0.0040095998022556
 71     0.0276269761448348
 72    -0.0151788360148110
 73    -0.0080504602580741
 74    -0.0094419995402697
 75    -0.0164115869153619
 76     0.0142506288298104
 77    -0.0059779815154179
 78     0.1210839065217239
 79     0.2990322039113720
 80    -0.0155126343788127
 81    -0.0104039083527320
 82    -0.1243914337218905
 83    -0.2656515938652622
 84     0.0153630143927925
 85     0.0022958465039264
 86    -0.1184860995332963
 87    -0.2719185137683335
 88     0.0204021521260229
 89     0.0026893941048151
 90     0.1350123316925990
 91     0.2979638476815971
 92    -0.0087948447200994
 93    -0.0013247694115565
 94    -0.0134489075470222
 95    -0.0257239778952384
 96     0.0022274466513094
 97    -0.0014856303653541
 98    -0.0002887861639900
 99     0.0005708457850837
 100     0.0027752211387169
 101    -0.0063776208387948
 102    -0.0079688915545021
 103     0.0376890009451132
 104     0.0010175993515888
 105    -0.0086229912265039
 106     0.0029531957697401
 107    -0.0166769647716761
 108     0.0033305823641352
 109     0.0074797271446267
 110     0.0023688574614473
 111    -0.0424594303064266
 112     0.0018575408176397
 113     0.0059598281142083
 114    -0.0056905562677130
 115     0.0215977539411037
 116    -0.0000197203656752
 117     0.0004520602481632
 118    -0.0002083601740533
 119    -0.0007693816398507
 120     0.0027923377199620
 121     0.0021232566630741
 122    -0.0133751056337466
 123     0.0258763985061743
 124     0.0015089336394962
 125    -0.0013542494909103
 126     0.1225072938695074
 127    -0.2738509501465136
 128    -0.0089246545112380
 129    -0.0010430618561341
 130    -0.1066049239649675
 131     0.2479117360684830
 132     0.0182006303435733
 133     0.0091967367987910
 134    -0.1127361297108777
 135     0.2415596603400247
 136     0.0144425130828509
 137     0.0055663884232947
 138     0.1105770376788674
 139    -0.2738490293251383
 140    -0.0141821530700616
 141     0.0076701124185368
 142    -0.0094119363876363
 143     0.0168539753160846
 144     0.0126548876357894
 145    -0.0061882548234695
 146    -0.0037876132939076
 147    -0.0254512959976704
 148    -0.0134795402009020
 149    -0.0160300369174581
 150    -0.0180204478836259
 151    -0.0046199090692923
 152     0.0006125330701564
 153     0.0206567218633991
 154    -0.0715695241275541
 155     0.0630872754479638
 156     0.0629032170865254
 157     0.1146993626833830
 158     0.0206607309542391
 159     0.0140910324229079
 160    -0.0108036087433411
 161     0.0136051216438270
 162    -0.0063856366286417
 163     0.0308048771085180
 164     0.1474995095225819
 165     0.0712858298447534
 166    -0.0909637131560320
 167    -0.0202724423544921
 168    -0.0302145794082624
 169     0.0102411726513040
 170     0.0038773839416462
 171    -0.0022770066664300
 172    -0.0617084298306770
 173     0.0134701788252183
 174    -0.0582258948673576
 175    -0.0965929804824406
 176     0.0134488526545009
 177     0.0076274411052543
 178     0.0194834281699140
 179    -0.0187167252761521
 180     0.0058977251369081
 181     0.0957441011350746
 182    -0.1877734817635318
 183     0.0296937732780437
 184    -0.0162927677085519
 Sym= 101A
 Ene= 0.100789
 Spin= Alpha
 Occup= 2.000000
  1     0.0175335765405459
  2    -0.0136579304028799
  3     0.0134929170785740
  4     0.0163624591545316
  5     0.0036535421753195
  6    -0.0599740454549843
  7     0.1810043520844359
  8    -0.0703032769430926
  9    -0.0755728994522267
 10    -0.0196405325333267
 11     0.0345747487722785
 12    -0.0046001946181072
 13     0.0018346368368555
 14     0.0000620239764428
 15     0.0606471319018519
 16     0.0062386394900532
 17     0.0627571924743214
 18    -0.0955400418806356
 19     0.0143147765288317
 20    -0.0107292318469266
 21    -0.0174902760506072
 22    -0.0187389694749343
 23    -0.0018240405701140
 24    -0.0891073391785788
 25    -0.1990588943419983
 26    -0.0510319597871385
 27    -0.0412648517018462
 28    -0.0219308246164550
 29     0.0260357152002334
 30     0.0021888088822935
 31     0.0003140315085846
 32    -0.0187183465088375
 33     0.0735953006624082
 34     0.0283511890367687
 35    -0.0574589857755561
 36     0.1111971992571235
 37     0.0091366221548047
 38     0.0027977815230588
 39     0.0023004829615306
 40     0.0013301766760320
 41     0.0011166855036062
 42     0.0001876081865855
 43     0.0005762970684513
 44    -0.0050844732265534
 45     0.0031466168490388
 46    -0.0129022320466952
 47     0.0049868624741507
 48    -0.0152465109527751
 49    -0.0018969040888932
 50    -0.0045860070770592
 51    -0.0044115984182979
 52    -0.0059647382663920
 53    -0.0045327079032621
 54    -0.0057168173921018
 55    -0.0020693892529305
 56    -0.0044075865427603
 57     0.0049804884845962
 58    -0.0154182726774810
 59     0.0032399593991929
 60    -0.0128973257119715
 61     0.0005156723126836
 62    -0.0046731163291385
 63     0.0010338978124042
 64     0.0002433789409961
 65     0.0017432513527536
 66     0.0011231729677758
 67     0.0085995725192004
 68     0.0027790341430103
 69     0.0127787039315547
 70    -0.0020050975377065
 71     0.0100875748660573
 72    -0.0136339589429276
 73    -0.0127016701618654
 74    -0.0000811377451351
 75     0.0068207756425042
 76     0.0099670276883877
 77    -0.0015823642738140
 78     0.0489624555910534
 79     0.1185545449688462
 80    -0.0047002317628510
 81    -0.0063767846639716
 82    -0.0503871326405124
 83    -0.0998201114363362
 84     0.0103824442912653
 85    -0.0074763857167768
 86    -0.0470557803809491
 87    -0.1214418675385790
 88     0.0065682931967884
 89    -0.0091277820501979
 90     0.0433632331479955
 91     0.1156370648913614
 92    -0.0079072319391512
 93    -0.0052790238769392
 94    -0.0032240642966900
 95    -0.0035221450363445
 96    -0.0010895270923372
 97     0.0015464174110383
 98     0.0008127376531105
 99     0.0122695013955558
 100     0.0000154732467289
 101    -0.0034779222460047
 102     0.0087545387300404
 103    -0.3956443320807446
 104    -0.0017681173917338
 105     0.0016180555421030
 106     0.0014807871649351
 107     0.3849804315663636
 108    -0.0048638086534104
 109     0.0017423434406102
 110    -0.0004458250120083
 111     0.3842666804789082
 112     0.0045390490941359
 113    -0.0030954647118079
 114    -0.0097102471505712
 115    -0.3962566155071959
 116     0.0022729530784618
 117     0.0015133762252926
 118    -0.0006501204780872
 119     0.0122858532730135
 120     0.0000393335081278
 121    -0.0052097213019021
 122     0.0025116702939696
 123    -0.0020103077654371
 124     0.0012114857721756
 125    -0.0090415599290649
 126    -0.0403751890366457
 127     0.1093205794717976
 128     0.0077303283682467
 129    -0.0075424887643124
 130     0.0448278831429306
 131    -0.1166766844447399
 132    -0.0061942629860386
 133    -0.0058882171833159
 134     0.0478944643139998
 135    -0.0954514111398844
 136    -0.0100331903480350
 137    -0.0014780801096315
 138    -0.0462573728704512
 139     0.1123001817860479
 140     0.0044272700784291
 141    -0.0121931160735466
 142    -0.0005484247878359
 143     0.0080665031891204
 144    -0.0093307397231992
 145     0.0124023246431433
 146     0.0021526613582511
 147     0.0089561630235243
 148     0.0129515498472933
 149     0.0207504671629389
 150     0.0247210120089816
 151     0.0022269384171304
 152    -0.0002668814448628
 153    -0.0176195256728123
 154     0.0696786655185289
 155    -0.0278755049181639
 156    -0.0539447776943811
 157    -0.1051451127304922
 158    -0.0165878831274389
 159    -0.0129894697681320
 160     0.0127147050676421
 161    -0.0153040880463180
 162     0.0035484971905352
 163    -0.0559898758663274
 164    -0.1704107049729336
 165    -0.0667276777429585
 166     0.0723293156254550
 167     0.0185848032862982
 168     0.0326142210096317
 169    -0.0045244702827124
 170    -0.0018324275277828
 171     0.0000154646255600
 172     0.0568263589995526
 173    -0.0065028169008214
 174     0.0586991722806036
 175     0.0902072538443423
 176    -0.0134289472921415
 177    -0.0100161062479443
 178    -0.0166437566987084
 179     0.0176930891979073
 180    -0.0018035187599351
 181    -0.0848719390086299
 182     0.1883379643960842
 183    -0.0473347179964138
 184     0.0386455504960504
 Sym= 102A
 Ene= 0.101398
 Spin= Alpha
 Occup= 2.000000
  1     0.0095611972406885
  2    -0.0165144023839987
  3     0.0089300859153556
  4     0.0349614703535456
  5    -0.0027420216959989
  6    -0.0916789117456765
  7     0.2454534593523476
  8    -0.1434642576006742
  9     0.0080094949449137
 10    -0.0100477959155521
 11     0.0489300467125704
 12     0.0066093986395618
 13    -0.0010637845580222
 14    -0.0030120234046102
 15     0.1286058441069497
 16     0.0111242932370713
 17     0.1805293464181853
 18    -0.0609489829344563
 19     0.0145632476108997
 20    -0.0163418253470864
 21    -0.0032364591318667
 22    -0.0347312096076745
 23     0.0072113607161811
 24    -0.0664565232889437
 25    -0.2294631599791149
 26    -0.1446299227182860
 27    -0.0418476096116187
 28    -0.0339845442218501
 29     0.0347657049215917
 30    -0.0006896864958622
 31    -0.0047800669171930
 32    -0.0123614392904199
 33     0.0264437398371568
 34    -0.0419431066121541
 35    -0.0756189174030640
 36     0.0517652881904497
 37     0.0139392684564699
 38    -0.0117469212198951
 39     0.0394827287430218
 40    -0.0032152704457170
 41    -0.0004373920259121
 42    -0.0032169117016049
 43    -0.0019123930864938
 44    -0.0046598396860543
 45     0.0022970183818105
 46    -0.0002533837250069
 47    -0.0001551854875767
 48     0.0020047480697392
 49    -0.0000627446308978
 50     0.0094573625285026
 51    -0.0054807660823109
 52     0.0065147070002513
 53     0.0054680488032958
 54    -0.0067216616523013
 55     0.0001089521093140
 56    -0.0096825652494433
 57     0.0001268565836357
 58    -0.0024934629806302
 59    -0.0023551201067179
 60     0.0000298651726668
 61     0.0017522696297918
 62     0.0050715161820557
 63     0.0004092098702728
 64     0.0033269738188437
 65    -0.0398187680090605
 66     0.0033644536476651
 67    -0.0148066389209388
 68     0.0119187854964179
 69    -0.0135419446167516
 70     0.0087136898751070
 71     0.0287493213406926
 72     0.0027741468855207
 73    -0.0022928184389242
 74    -0.0613021498690255
 75    -0.1530959406350660
 76     0.0003658758242710
 77    -0.0003528702764402
 78    -0.0427433730805119
 79    -0.1062719766576051
 80     0.0071754170922968
 81     0.0012982115142778
 82     0.1045223017587068
 83     0.2420125608411069
 84    -0.0091499840856695
 85    -0.0012682673919451
 86     0.1112590442966333
 87     0.2504142013505590
 88    -0.0195858837258316
 89     0.0005280615110941
 90    -0.0410375806729228
 91    -0.0947964214262279
 92     0.0027592391679925
 93    -0.0004927280515790
 94    -0.0671115273921157
 95    -0.1557226917502134
 96     0.0094985270124629
 97     0.0012030318693612
 98    -0.0010847847609747
 99     0.0005447647531939
 100    -0.0031680515210743
 101     0.0100449100344218
 102    -0.0058399630104404
 103     0.0661707866502568
 104    -0.0075222370459435
 105    -0.0014464157884639
 106    -0.0116316103119049
 107     0.0709748351562777
 108     0.0054467104114043
 109     0.0014324301594317
 110    -0.0119265850948208
 111    -0.0629536213098343
 112     0.0056102188408409
 113    -0.0101595570025999
 114    -0.0060742490075066
 115    -0.0725241168081574
 116    -0.0074524607724943
 117    -0.0012896324668339
 118    -0.0011240246909419
 119    -0.0022285136537012
 120    -0.0032459361602394
 121     0.0004989739450691
 122    -0.0667036261834721
 123     0.1554554191907198
 124     0.0094893800781017
 125    -0.0006076951994530
 126    -0.0433614808222026
 127     0.1002902683051264
 128     0.0031725605026475
 129     0.0012973710090868
 130     0.1123509008563340
 131    -0.2543039468848650
 132    -0.0197914435373844
 133    -0.0007387015312263
 134     0.1064477060179599
 135    -0.2479815902252646
 136    -0.0095020316880425
 137     0.0002223203245623
 138    -0.0440745131330954
 139     0.1103666581596150
 140     0.0073349949463007
 141     0.0033389741947133
 142    -0.0610061492216375
 143     0.1525261118869806
 144     0.0014682211328603
 145     0.0125385816444348
 146     0.0091603476317920
 147    -0.0286798497249238
 148     0.0014658454494630
 149    -0.0364129193876639
 150    -0.0376634226927563
 151     0.0007666868020334
 152    -0.0047536648025666
 153     0.0138637052567143
 154    -0.0326842752297809
 155    -0.0433916640084465
 156     0.0802280369533834
 157     0.0610558956545456
 158     0.0107519765778428
 159     0.0176745586787574
 160    -0.0103958300652497
 161     0.0368287798194137
 162     0.0027372404994144
 163     0.0994339735645809
 164     0.2644332089948804
 165     0.1501189597641888
 166     0.0035564501710053
 167    -0.0117401489407721
 168    -0.0523781881035616
 169    -0.0068400969621615
 170    -0.0011309978856917
 171     0.0032267230491516
 172    -0.1344935753891264
 173     0.0111061050648259
 174    -0.1875032493373771
 175    -0.0688123374176918
 176     0.0159178748691525
 177     0.0175773027571007
 178     0.0045000448836509
 179    -0.0365220672147415
 180    -0.0075265309746423
 181     0.0729570202506851
 182    -0.2476708378257967
 183     0.1518806626083757
 184    -0.0480935770384629
 Sym= 103A
 Ene= 0.102704
 Spin= Alpha
 Occup= 2.000000
  1     0.0094250241406639
  2    -0.0113416147051520
  3     0.0199303304638960
  4     0.0322408540582823
  5    -0.0031750427981085
  6    -0.1439058320549955
  7     0.2899465757486612
  8    -0.0798165809542251
  9    -0.0157942630369710
 10    -0.0176451638681312
 11     0.0503731241465887
 12     0.0118604307569344
 13    -0.0062599436279994
 14    -0.0056432062992690
 15     0.0878768425411809
 16    -0.0325332516226383
 17     0.1183981803997281
 18    -0.0861465862564783
 19     0.0173894985034991
 20    -0.0227927607835123
 21    -0.0093937192348944
 22    -0.0234958671380346
 23     0.0092669329993222
 24    -0.0578789070616367
 25    -0.2360225948693302
 26    -0.1513432848775334
 27    -0.1043287511410129
 28    -0.0383015443576932
 29     0.0470374462716307
 30    -0.0086726446563981
 31     0.0003926185199404
 32    -0.0141271808279139
 33     0.0657537295432730
 34    -0.0729264005608041
 35    -0.0552520043669840
 36     0.0944764141864606
 37     0.0026877157328972
 38    -0.0098325903147405
 39     0.0125358508802055
 40    -0.0019430507174813
 41    -0.0011933332683847
 42    -0.0007779477871622
 43     0.0014438909638703
 44    -0.0041724383531446
 45     0.0026430503033627
 46     0.0062480296576126
 47    -0.0006661415525946
 48     0.0083473811096875
 49    -0.0019350473534902
 50     0.0093077406022736
 51    -0.0003446522333589
 52     0.0074196248688401
 53     0.0001282601366181
 54     0.0068633992983330
 55    -0.0018708115254945
 56     0.0085080467627858
 57    -0.0005302331510969
 58     0.0083549315344190
 59     0.0024239483414437
 60     0.0062502683081348
 61     0.0016598263445733
 62    -0.0041142440249813
 63    -0.0010988769763673
 64    -0.0006591084232655
 65     0.0097722028529817
 66    -0.0016241948084089
 67     0.0022270062711154
 68    -0.0087230073810591
 69     0.0122027399196899
 70     0.0113477588326697
 71    -0.0135597870356160
 72    -0.0150804715761446
 73    -0.0112034001905261
 74     0.0001011574120360
 75     0.0023905350914736
 76     0.0079954860843056
 77     0.0045509220130046
 78    -0.0732277497712519
 79    -0.1889631816394805
 80     0.0087139600227026
 81    -0.0025929277333460
 82     0.0952323401920294
 83     0.2175759630378715
 84    -0.0088630855298827
 85    -0.0025161566907776
 86     0.0795842899822969
 87     0.1930127711087403
 88    -0.0109909267091808
 89     0.0042814177053738
 90    -0.0938420122984652
 91    -0.2091826855747552
 92     0.0109977630807449
 93    -0.0001637438111842
 94    -0.0028440105838017
 95    -0.0082270899285353
 96     0.0004027836378460
 97     0.0025649856506992
 98    -0.0010892665356291
 99     0.0363845642457222
 100    -0.0018639213055734
 101     0.0062045616341003
 102    -0.0001673531601870
 103     0.1539223953049781
 104    -0.0022112640328824
 105     0.0016002692725013
 106    -0.0033521551593985
 107    -0.1831844848712996
 108     0.0007624638436988
 109     0.0017203600845011
 110     0.0019464760455636
 111    -0.1883890775973022
 112    -0.0001411036347498
 113     0.0052555111110663
 114     0.0000289324596882
 115     0.1485238558682676
 116     0.0013933933922806
 117     0.0025098001242529
 118     0.0010195531581486
 119     0.0363663287439794
 120     0.0015329793012486
 121    -0.0001627618947350
 122    -0.0023141730844528
 123     0.0037330729328779
 124     0.0003057046318837
 125     0.0039795486731910
 126     0.0897124941778161
 127    -0.2002461138149530
 128    -0.0108818721642742
 129    -0.0024011295305214
 130    -0.0699427705310321
 131     0.1718414149765006
 132     0.0093203269455244
 133    -0.0030692609090279
 134    -0.0860907558920477
 135     0.1979750030884468
 136     0.0081158922009513
 137     0.0045207521621426
 138     0.0688456229160054
 139    -0.1786595630148556
 140    -0.0081608307498721
 141    -0.0117596748517245
 142    -0.0048140939697579
 143     0.0143891493683657
 144    -0.0086945787909943
 145     0.0140133856470031
 146    -0.0104833415432072
 147    -0.0150009895939804
 148     0.0162953065006259
 149     0.0369323991374947
 150     0.0459909404490471
 151    -0.0084310614603106
 152    -0.0005334683177881
 153    -0.0144605632272139
 154     0.0688249870039603
 155     0.0685628987516809
 156    -0.0526942380400329
 157    -0.0980606216615547
 158    -0.0097355682003904
 159    -0.0110219741600319
 160     0.0202218138850433
 161    -0.0305198887600096
 162    -0.0028049804487306
 163    -0.1409404575837235
 164    -0.2829931895797644
 165    -0.0733239870646418
 166     0.0213866335571652
 167     0.0182377869712718
 168     0.0488439544840149
 169     0.0111487112968510
 170     0.0060407592039699
 171    -0.0054640635985413
 172     0.0813335393638808
 173     0.0323871418148964
 174     0.1078944961616523
 175     0.0874638571200943
 176    -0.0171956222072054
 177    -0.0221857529216739
 178    -0.0103007188212325
 179     0.0220016820832665
 180     0.0087084230904806
 181    -0.0585632979036795
 182     0.2314080582492528
 183    -0.1430195170460749
 184     0.1045559335699273
 Sym= 104A
 Ene= 0.105521
 Spin= Alpha
 Occup= 2.000000
  1     0.0047010199062667
  2     0.0223243390655396
  3     0.0301102798818863
  4     0.0154715167101118
  5    -0.0043349286193122
  6    -0.2177688920005365
  7     0.2115393475395941
  8     0.2176292377649042
  9    -0.0030405671505429
 10    -0.0207260948140087
 11     0.0160980591654209
 12     0.0226094010322489
 13    -0.0275725975473114
 14    -0.0008219524376683
 15    -0.0479319884638390
 16    -0.2206423319024310
 17    -0.0905055942023720
 18    -0.0916296704731232
 19     0.0178971271591752
 20    -0.0353263590635790
 21    -0.0084087510012631
 22     0.0278316239247711
 23     0.0049777806956214
 24     0.0701536684923026
 25    -0.0309362650430112
 26    -0.1407874626590549
 27    -0.1742537603497493
 28    -0.0087749955169386
 29     0.0202740673985676
 30    -0.0386892485918066
 31     0.0220869705116735
 32    -0.0163409492838226
 33     0.1016637333095947
 34    -0.1400255408380833
 35    -0.0057785850874965
 36     0.1217888174287985
 37    -0.0149274331405452
 38    -0.0069946586626513
 39    -0.0326915278122690
 40     0.0239314888420621
 41    -0.0006008426192249
 42     0.0041441324507406
 43     0.0034890649182335
 44     0.0013974246969959
 45     0.0043561470104283
 46     0.0024491898112300
 47     0.0018981363977084
 48    -0.0020853305508368
 49    -0.0046025529474300
 50     0.0003341797952566
 51     0.0036421538239979
 52     0.0020375774422383
 53    -0.0037056704669298
 54    -0.0018494793975067
 55     0.0045067753862554
 56    -0.0000955144358619
 57    -0.0019556260575277
 58     0.0021228638567790
 59    -0.0042184701190193
 60    -0.0023912689762802
 61    -0.0034660812517175
 62    -0.0013517055147961
 63     0.0005867884793152
 64    -0.0040447098358012
 65     0.0325174947502406
 66    -0.0239972725471177
 67     0.0150847689401375
 68     0.0065386074988477
 69     0.0433185916689704
 70     0.0388839001154050
 71    -0.0362408749393525
 72    -0.0307016992310115
 73    -0.0207523832510005
 74     0.0887171271057988
 75     0.2233759641079451
 76     0.0169160551287936
 77     0.0089253845298477
 78    -0.0412919357075503
 79    -0.1240413060421554
 80     0.0020213658673401
 81    -0.0034098236325933
 82    -0.0138943909518721
 83    -0.0493202136587247
 84     0.0031987297253290
 85    -0.0050730114511933
 86    -0.0360506651294127
 87    -0.0751005359702502
 88     0.0128970167039808
 89    -0.0044561998760590
 90    -0.0673137230631594
 91    -0.1418501975362307
 92     0.0073775472381523
 93     0.0002781307879609
 94     0.0915243696530303
 95     0.2076625344584058
 96    -0.0117182939583292
 97    -0.0009165140082215
 98     0.0019794230297840
 99     0.0012805830149221
 100     0.0018454556913277
 101    -0.0062879882891942
 102     0.0133114400722498
 103    -0.0904399406690159
 104     0.0081280996378534
 105     0.0083191527275762
 106     0.0119793849755664
 107    -0.0934950263326910
 108    -0.0083200590225147
 109    -0.0082682230614313
 110     0.0123577570085923
 111     0.0918625020551943
 112    -0.0083882662648768
 113     0.0063885469971745
 114     0.0134381376275153
 115     0.0920475524381172
 116     0.0080877580580797
 117     0.0010550510796959
 118     0.0019868212336721
 119    -0.0013578336682646
 120     0.0018681591479006
 121    -0.0002738222761559
 122     0.0909380903931978
 123    -0.2071731330450495
 124    -0.0116061861474475
 125     0.0046514264355625
 126    -0.0648673090594571
 127     0.1367392341938933
 128     0.0073147877738789
 129     0.0050527765612431
 130    -0.0378696260059895
 131     0.0796597862037040
 132     0.0132116673335450
 133     0.0033368876628292
 134    -0.0161336471156496
 135     0.0541481123895372
 136     0.0035272627320391
 137    -0.0087532675422126
 138    -0.0391959437561147
 139     0.1188714857244025
 140     0.0019632545837653
 141     0.0207054114398354
 142     0.0884063868247641
 143    -0.2231683517614219
 144     0.0167802658021496
 145    -0.0435708033145060
 146     0.0380001386699751
 147     0.0358685689090083
 148    -0.0310336407424215
 149    -0.0083036037845794
 150    -0.0200908727761410
 151     0.0381399866497837
 152     0.0216006169018479
 153     0.0165050846159119
 154    -0.1023479570820584
 155    -0.1371250787244221
 156     0.0046396044830524
 157     0.1228336002473836
 158     0.0047642000761054
 159    -0.0219488551586750
 160    -0.0300851000528033
 161     0.0150259878006635
 162     0.0040840031746770
 163     0.2154204596440498
 164     0.2100594352888588
 165    -0.2158324170957741
 166    -0.0059383121449971
 167    -0.0209864184078575
 168    -0.0160141306058242
 169    -0.0221259727260202
 170    -0.0271864781790030
 171     0.0009184579276943
 172     0.0489282035413146
 173    -0.2178999413483591
 174     0.0919048264158591
 175    -0.0911802012129505
 176     0.0176681184427059
 177     0.0349169737913752
 178     0.0088203881317551
 179     0.0276932057981912
 180    -0.0048477036770850
 181    -0.0679940486088716
 182    -0.0323220439001074
 183     0.1377727964054834
 184    -0.1734690179456714
 Sym= 105A
 Ene= 0.106728
 Spin= Alpha
 Occup= 2.000000
  1    -0.0079070933603648
  2     0.0441255001164983
  3     0.0151875076519172
  4     0.0281611637469634
  5    -0.0057168694771183
  6    -0.1988104255485243
  7     0.1059886270629996
  8     0.2896791323971667
  9     0.1171319085007343
 10    -0.0007228539071308
 11    -0.0053175620554253
 12     0.0301467194774527
 13    -0.0416924897909898
 14     0.0021965731015439
 15    -0.0129784524089512
 16    -0.3304972775890359
 17    -0.0242448145672223
 18    -0.0036856385635910
 19     0.0096919461102333
 20    -0.0410541718233115
 21     0.0146260667725410
 22     0.0364773830390244
 23     0.0042882110109894
 24     0.2132873816135103
 25     0.1531094946719935
 26    -0.2457691534405316
 27    -0.1158889486172384
 28     0.0068039500421171
 29    -0.0079073551015096
 30    -0.0566735820436468
 31     0.0315214002893544
 32    -0.0019488680764031
 33     0.0042146900139176
 34    -0.1907291392909493
 35    -0.0000434596793530
 36     0.0070107176777159
 37    -0.0053158176813721
 38    -0.0291045700199131
 39     0.0032179059079681
 40     0.0383934616322782
 41    -0.0011750316236984
 42     0.0021714591439735
 43    -0.0012552759776930
 44     0.0068110831567948
 45     0.0020544142825359
 46     0.0002129867313296
 47    -0.0030019580737601
 48    -0.0037863697007622
 49     0.0015135932287124
 50    -0.0030890666742874
 51     0.0009085846109884
 52    -0.0027247118172840
 53     0.0008274551359319
 54    -0.0028951685384223
 55     0.0016713315630836
 56    -0.0031484827317928
 57    -0.0032382828412083
 58    -0.0038602867368724
 59     0.0020957110065478
 60     0.0002060429825912
 61    -0.0013153725223473
 62     0.0068967754869923
 63    -0.0012053140779609
 64     0.0021105809387292
 65     0.0046103383162323
 66     0.0397370774879026
 67    -0.0050384105959569
 68    -0.0305164595681648
 69     0.0009818904379957
 70     0.0698546270609850
 71     0.0111656325054674
 72    -0.0007163344087764
 73    -0.0000679923564606
 74     0.0056040833832871
 75     0.0080678801478064
 76     0.0024246641359115
 77     0.0034071829295808
 78     0.0323515857125685
 79     0.0551620053806734
 80    -0.0057995857028496
 81     0.0052273495168604
 82    -0.0199585493967343
 83    -0.0905625870089502
 84     0.0007942053183392
 85     0.0003279504695046
 86    -0.0263653359720372
 87    -0.0630839396676827
 88     0.0066173257916632
 89    -0.0022615313770451
 90     0.0333134484882570
 91     0.0719052463326723
 92    -0.0021944642165873
 93     0.0021791236365566
 94     0.0070476762969942
 95     0.0069532671263834
 96    -0.0009720125566544
 97    -0.0024183634311136
 98     0.0003081837097957
 99    -0.0247828112777881
 100     0.0022074211798391
 101    -0.0028382215123021
 102    -0.0006387352847406
 103    -0.0123018609766192
 104     0.0011466432626956
 105    -0.0004618630362541
 106     0.0022109644030964
 107     0.0322643956897013
 108    -0.0003098066853923
 109    -0.0007714360560091
 110    -0.0018048213233711
 111     0.0353070549363590
 112     0.0000023813701339
 113    -0.0026598849416775
 114     0.0010609355569496
 115    -0.0093313117398818
 116    -0.0008832644603079
 117    -0.0024472785999681
 118    -0.0002952970398805
 119    -0.0248899117253645
 120    -0.0021739008847941
 121     0.0021947351010839
 122    -0.0042593751677523
 123     0.0002699799284378
 124     0.0006158714154669
 125    -0.0020767215002371
 126    -0.0359954398397739
 127     0.0778674219766624
 128     0.0024543983090312
 129     0.0003848300962138
 130     0.0256602352943977
 131    -0.0619017688443361
 132    -0.0064511443455510
 133     0.0054617509095176
 134     0.0194273987319149
 135    -0.0910624199636586
 136    -0.0007514240813013
 137     0.0033225381093955
 138    -0.0347051830220069
 139     0.0601978849441658
 140     0.0061271406471934
 141     0.0003560800425446
 142    -0.0030072585941521
 143     0.0011840869293590
 144    -0.0022115275510659
 145     0.0000990046878308
 146    -0.0725879486167541
 147     0.0121950751565974
 148     0.0002391671908755
 149    -0.0070295534505131
 150    -0.0082303266546314
 151    -0.0584635284946536
 152    -0.0324780820151681
 153    -0.0016757118957429
 154     0.0020257917765053
 155     0.1970343209495447
 156     0.0012350726343680
 157    -0.0047248403986232
 158     0.0086086453437347
 159     0.0455479894709617
 160     0.0153894596851572
 161    -0.0295842232675064
 162    -0.0057782016601089
 163    -0.2038264630488662
 164    -0.1088779656667721
 165     0.2960527659536226
 166    -0.1222470372688155
 167     0.0004424527814306
 168    -0.0053831129113728
 169     0.0311330986941624
 170     0.0430524529008871
 171     0.0019999804616101
 172    -0.0114257532744824
 173     0.3410193122947058
 174    -0.0211387442896978
 175     0.0006274015724756
 176    -0.0095837316863184
 177    -0.0423601672357548
 178     0.0154112393079232
 179    -0.0371358570550855
 180     0.0046013875557884
 181     0.2215465155471944
 182    -0.1585873023617252
 183    -0.2566538980692837
 184     0.1185459371901226
 Sym= 106A
 Ene= 0.107637
 Spin= Alpha
 Occup= 2.000000
  1    -0.0152988022559062
  2     0.0363900997611915
  3    -0.0048355314622355
  4     0.0323607545844115
  5    -0.0032228071506354
  6    -0.0828616214242062
  7    -0.0025158441485268
  8     0.1517017929159628
  9     0.1599828880077895
 10     0.0166563217667543
 11    -0.0118280495590271
 12     0.0214316054791530
 13    -0.0313434422448442
 14     0.0005161531543506
 15     0.0563062003409562
 16    -0.2436990643788480
 17     0.0971722503604440
 18     0.0771660386355748
 19    -0.0026335940835981
 20    -0.0262079840668240
 21     0.0264621999447179
 22     0.0155623532512305
 23     0.0036171944609407
 24     0.2166791597987967
 25     0.1912295257150636
 26    -0.2454151294943313
 27    -0.0086458798647482
 28     0.0055643810506187
 29    -0.0149115543909051
 30    -0.0415500233604748
 31     0.0218811982558322
 32     0.0143249235278379
 33    -0.0880946847250400
 34    -0.1379045910802085
 35     0.0025016681538899
 36    -0.0984375053664513
 37     0.0067583262762275
 38    -0.0381591227396090
 39     0.0366029563049578
 40     0.0256353790966717
 41    -0.0019469460911439
 42    -0.0007211035570730
 43    -0.0044211328402882
 44     0.0076969652774952
 45    -0.0007909088652815
 46    -0.0011645059701120
 47    -0.0063348031561077
 48    -0.0015417226761818
 49     0.0050393274778996
 50    -0.0032368014022471
 51    -0.0018247086701484
 52    -0.0053738947682210
 53     0.0019142768339429
 54     0.0051434018061130
 55    -0.0048728297666913
 56     0.0029053248968291
 57     0.0062517208809101
 58     0.0013656388904061
 59     0.0007152321032321
 60     0.0011152276087099
 61     0.0042086525248256
 62    -0.0071737702971913
 63     0.0018515270900264
 64     0.0007815896287527
 65    -0.0362473781366602
 66    -0.0242597045955081
 67    -0.0072781925101369
 68     0.0372602229969552
 69    -0.0379752041183629
 70     0.0589609001655990
 71     0.0336711476770319
 72     0.0254194994516830
 73     0.0188691178175865
 74    -0.0752523892158370
 75    -0.1969257110969600
 76    -0.0127690343222050
 77    -0.0027963826974360
 78     0.0752649420837384
 79     0.1705583159780442
 80    -0.0087780331291197
 81     0.0091738572075541
 82     0.0021679059503680
 83    -0.0417417844575363
 84    -0.0036189026828779
 85     0.0039793999087276
 86     0.0040556972582385
 87     0.0032902377565864
 88    -0.0048848545157321
 89     0.0035413705336236
 90     0.0902242829680144
 91     0.1934981100186692
 92    -0.0074588761864735
 93     0.0021893511492398
 94    -0.0756973987515952
 95    -0.1847406324941464
 96     0.0088729044599110
 97    -0.0006771741993821
 98    -0.0017485648325280
 99    -0.0036048696662424
 100     0.0007485898985375
 101     0.0037767833108634
 102    -0.0126461078057678
 103     0.0809416682626044
 104    -0.0061363233057728
 105    -0.0084507241760350
 106    -0.0085204321114904
 107     0.0849134161427064
 108     0.0073796805193843
 109     0.0084210111704489
 110    -0.0089310780571216
 111    -0.0825247885075108
 112     0.0074753414558016
 113    -0.0039924213090133
 114    -0.0127121421863079
 115    -0.0820007601663671
 116    -0.0061287452515567
 117     0.0004394566210268
 118    -0.0017685967465275
 119     0.0022582834723025
 120     0.0005936917789211
 121    -0.0020113591676853
 122    -0.0755224275039240
 123     0.1845223709529442
 124     0.0088549830863624
 125    -0.0038820617378006
 126     0.0867220421977276
 127    -0.1863935839173345
 128    -0.0073556005695592
 129    -0.0038513151269865
 130     0.0065478602907506
 131    -0.0092666986048762
 132    -0.0053308887320911
 133    -0.0086753058372134
 134     0.0046291303343076
 135     0.0341040767642989
 136    -0.0037559657216837
 137     0.0028310864044689
 138     0.0723650274378147
 139    -0.1642732717072135
 140    -0.0085629950563363
 141    -0.0185656111619869
 142    -0.0750923251984831
 143     0.1968259665862570
 144    -0.0124750181647833
 145     0.0376845808866796
 146     0.0570754715666932
 147    -0.0324563787869042
 148     0.0252501237068684
 149     0.0049219397999198
 150     0.0141699374345631
 151     0.0396872244450911
 152     0.0210206137080398
 153    -0.0143427468013243
 154     0.0878788850265693
 155    -0.1321053241737665
 156    -0.0032057425590817
 157    -0.0982952893274961
 158    -0.0151492128107530
 159    -0.0348100193518415
 160     0.0051538094785974
 161     0.0316878866901136
 162     0.0029912931309885
 163     0.0772257876242359
 164    -0.0035748304430092
 165    -0.1407236803550366
 166     0.1556332472342935
 167     0.0165495401444796
 168     0.0112010427867441
 169    -0.0205257968134048
 170    -0.0299688724281789
 171    -0.0002245416942021
 172    -0.0571622535914424
 173    -0.2327509061930582
 174    -0.0990024073129544
 175     0.0775580201629988
 176    -0.0030060291392577
 177     0.0250031041126420
 178    -0.0258673753855391
 179     0.0141079067181235
 180    -0.0036435460184466
 181    -0.2091269025398982
 182     0.1840237368228719
 183     0.2387714092080591
 184    -0.0060206699719838
 Sym= 107A
 Ene= 0.115466
 Spin= Alpha
 Occup= 2.000000
  1     0.0313773275392821
  2    -0.0035684084984499
  3     0.0190846818302815
  4    -0.0425798780570438
  5    -0.0116325114960463
  6    -0.0879785030473591
  7     0.0198170279235120
  8     0.2453823472622236
  9    -0.0715239372660715
 10    -0.0279514542951125
 11    -0.0121990190033123
 12     0.0005876719066361
 13     0.0016750990549089
 14     0.0269321368939324
 15    -0.1759031772560965
 16     0.0156462287017824
 17    -0.3258628110737458
 18    -0.2002881446615863
 19     0.0317726326132028
 20    -0.0002182322272482
 21    -0.0186638062830726
 22     0.0399432911089646
 23    -0.0099211158380139
 24    -0.0980211646726572
 25    -0.0263583488452490
 26     0.2679540511887248
 27    -0.0754689875296936
 28     0.0502246146523629
 29    -0.0639112875330892
 30     0.0012035840059556
 31    -0.0026260299959340
 32    -0.0551566584218176
 33     0.1680268607010706
 34    -0.0022856459306166
 35    -0.0939825275503336
 36     0.1956486832643319
 37     0.0037163252544907
 38     0.0533620535367434
 39    -0.0053252336561730
 40     0.0415474573016191
 41     0.0074056408651441
 42    -0.0039667953753745
 43     0.0027039027674774
 44    -0.0095302156861039
 45     0.0012867135105400
 46     0.0008203823003970
 47     0.0050382879491502
 48     0.0011097929210376
 49     0.0016239376003539
 50    -0.0000441422551442
 51    -0.0003904022756914
 52     0.0036486268690869
 53    -0.0003688034372612
 54     0.0035385543542979
 55     0.0016985850331936
 56    -0.0001994447200499
 57     0.0049885367119843
 58     0.0009459185698505
 59     0.0012594030544900
 60     0.0008035853362048
 61     0.0024566791034467
 62    -0.0087445162810893
 63     0.0073577248583647
 64    -0.0039780690706551
 65    -0.0038085313961214
 66     0.0422259255605208
 67     0.0024619154745457
 68     0.0535005933779061
 69     0.0352595555279975
 70     0.0009344496211661
 71     0.1315133488736123
 72    -0.0237837564946869
 73    -0.0287779420759315
 74     0.0216062722256244
 75     0.0591102682817621
 76     0.0303238408349967
 77     0.0001412012623560
 78    -0.0449343450764420
 79    -0.1026912371395150
 80     0.0034514435794981
 81    -0.0001408510943649
 82    -0.0147326341208777
 83     0.0053098624272255
 84     0.0010609213358375
 85    -0.0002474731908067
 86     0.0341434221580628
 87     0.0650080532202173
 88     0.0044081052612195
 89    -0.0104585294889323
 90    -0.0055213226971503
 91    -0.0236081032744521
 92     0.0032418672439801
 93    -0.0013106177767503
 94     0.0106469929136483
 95     0.0308613583874877
 96     0.0001944172400370
 97    -0.0009047025263297
 98     0.0013650796947733
 99    -0.1074075553565606
 100     0.0047444128461093
 101    -0.0022258862659477
 102    -0.0007321156286350
 103     0.0557860367111034
 104    -0.0000063300103854
 105     0.0025452079757999
 106    -0.0004543641454991
 107     0.0399813580093948
 108    -0.0027094717655911
 109     0.0025106127990283
 110     0.0005158542316116
 111     0.0405286624410325
 112     0.0026885062788825
 113    -0.0023092854383848
 114     0.0009777000918409
 115     0.0562866421869455
 116    -0.0000857428565138
 117    -0.0010870056213890
 118    -0.0015750547629151
 119    -0.1075680723873452
 120    -0.0047560061919464
 121    -0.0011263063528475
 122    -0.0104606060771509
 123     0.0299894834898367
 124    -0.0001773780178792
 125    -0.0106849592770475
 126     0.0038676146679879
 127    -0.0201831444396165
 128    -0.0033816762457989
 129    -0.0001411893740220
 130    -0.0330948217666232
 131     0.0627025785005934
 132    -0.0045489968179249
 133     0.0008480758107982
 134     0.0152905057695436
 135     0.0018082208790270
 136    -0.0006525891844765
 137     0.0000806712386659
 138     0.0433749289710567
 139    -0.0993645852993831
 140    -0.0033507616765642
 141    -0.0288073772484305
 142    -0.0214464271970502
 143     0.0584109595735884
 144    -0.0304909195249490
 145     0.0352948865427966
 146    -0.0017340990419654
 147     0.1332700548622258
 148     0.0242745613653332
 149    -0.0507911740159880
 150    -0.0645166677642329
 151     0.0011813147633411
 152     0.0045793264677981
 153    -0.0556038759693854
 154     0.1688141307723915
 155     0.0154597217511575
 156    -0.0940850208038105
 157    -0.1968861892516111
 158    -0.0307084300225914
 159    -0.0043586506771907
 160     0.0203788420874562
 161     0.0433799044527279
 162    -0.0134625618235182
 163    -0.0890885696979876
 164    -0.0202795225768937
 165     0.2414505134359886
 166     0.0616481382743510
 167     0.0281837006270657
 168    -0.0123315403880211
 169     0.0030390710030512
 170    -0.0021915175184973
 171     0.0270552123952798
 172    -0.1767951877769523
 173    -0.0262750769380345
 174    -0.3275299265616837
 175     0.2006510718279445
 176    -0.0326481951943794
 177     0.0005883058062539
 178    -0.0176081899827289
 179    -0.0395498912220909
 180    -0.0081362485216966
 181    -0.0970616076243074
 182     0.0254434945593590
 183     0.2745080222015877
 184     0.0862990366896968
 Sym= 108A
 Ene= 0.118134
 Spin= Alpha
 Occup= 2.000000
  1     0.0020915353380391
  2     0.0092590293810410
  3    -0.0179802714595498
  4     0.0149138880776250
  5     0.0242948336942307
  6     0.0285808568891955
  7    -0.0060306162573835
  8     0.0090957134836820
  9    -0.1241749156671137
 10     0.0050029535806015
 11     0.0036817638919495
 12    -0.0307709713603452
 13    -0.0061073476922331
 14    -0.0069598915598557
 15     0.0306359225850930
 16    -0.1259302967780240
 17     0.0610814535825477
 18     0.0420564409036351
 19    -0.0166204516131803
 20    -0.0090291348986825
 21    -0.0124685437372463
 22    -0.0010053595863110
 23    -0.0191113749743492
 24    -0.0005430012201744
 25    -0.0124904578818573
 26    -0.1154725931649619
 27     0.1381818740420276
 28    -0.0129569011530676
 29     0.0177727320041263
 30     0.0057629862601435
 31     0.0308365969847462
 32     0.0119804042724752
 33    -0.0296845775168540
 34     0.1653066493673532
 35     0.0263174541737634
 36    -0.0379027312913989
 37     0.0097582026438597
 38    -0.0031015681882748
 39    -0.0180929253067293
 40    -0.0195253238564172
 41    -0.0009273051649178
 42     0.0010696566327217
 43     0.0020366606598517
 44    -0.0059767977878493
 45    -0.0003701879226050
 46    -0.0000144965979383
 47    -0.0000122521634756
 48     0.0011405442707038
 49    -0.0006677808848663
 50     0.0010866640136941
 51     0.0001289672403945
 52     0.0008013400179138
 53     0.0006176142823654
 54    -0.0027263052405735
 55     0.0017939447532128
 56    -0.0033437445356134
 57    -0.0013899590164946
 58    -0.0051311658039782
 59     0.0006784265331334
 60     0.0004995943992609
 61    -0.0072114943069091
 62     0.0232537094482470
 63    -0.0006821702418802
 64    -0.0001234815511835
 65     0.0460670377800275
 66     0.0357105565745771
 67    -0.0365570534272259
 68    -0.0154799758812668
 69    -0.0030444280126377
 70    -0.0123829894345355
 71    -0.0427172148866546
 72     0.0040302418882966
 73     0.0040856082777217
 74     0.0077989216283094
 75     0.0221605984404626
 76    -0.0065109602562473
 77     0.0012569212688739
 78    -0.0085669270388138
 79    -0.0182882554570369
 80     0.0007677533670810
 81    -0.0095375801897631
 82    -0.0013217971463990
 83     0.0130868056356425
 84     0.0053392634982816
 85    -0.0001602987359876
 86    -0.0035007620980157
 87    -0.0055624524282459
 88    -0.0003787824521264
 89     0.0024403280744745
 90    -0.0147761254605982
 91    -0.0304250336478719
 92    -0.0020652513105902
 93    -0.0011897396286348
 94     0.0096436174846936
 95     0.0267539732284172
 96    -0.0007415794230546
 97     0.0005188220904797
 98     0.0003270805130215
 99     0.0081397606753264
 100    -0.0017271796382609
 101    -0.0006663454195234
 102     0.0022359375523056
 103    -0.0185129526240687
 104     0.0001453481608857
 105     0.0008556604276772
 106     0.0012131117744456
 107    -0.0146280665210041
 108    -0.0007234184207583
 109    -0.0011848425138492
 110    -0.0005086968320159
 111     0.0132137881744129
 112    -0.0009609702080622
 113    -0.0012112170319766
 114     0.0028567631637396
 115     0.0084673714672227
 116    -0.0003948533317067
 117    -0.0029056417371377
 118     0.0005337199282811
 119     0.0049359122847679
 120    -0.0030931087966516
 121     0.0046310587702519
 122     0.0062323490347423
 123    -0.0305305192828695
 124     0.0008672605174865
 125    -0.0046285651380938
 126    -0.0321505911195164
 127     0.0691245305179152
 128    -0.0049147171465641
 129     0.0009566350806507
 130     0.0167482637792029
 131    -0.0399588600547234
 132    -0.0026845655052384
 133     0.0279956825074754
 134    -0.0011517943622396
 135    -0.0644667439073465
 136     0.0145103286443208
 137    -0.0028654968512423
 138    -0.0345164089754686
 139     0.0720858187174241
 140     0.0028558622546351
 141    -0.0012116355491019
 142     0.0074576299074501
 143    -0.0296010653341141
 144    -0.0062556173368030
 145     0.0000014099040351
 146    -0.0337540583346780
 147     0.0467811822845096
 148     0.0056157737039027
 149    -0.0135573510149524
 150    -0.0171572382393427
 151    -0.0172791064344120
 152     0.0939601588354629
 153    -0.0098938518651042
 154     0.0215424789454937
 155     0.5063096839483976
 156    -0.0193751519193282
 157    -0.0316711143772630
 158     0.0230145732076713
 159    -0.0280017705236809
 160     0.0487191595840937
 161     0.0276234574632054
 162    -0.0684733652786853
 163    -0.0496402444104884
 164    -0.0193912738768183
 165    -0.1513203822718671
 166    -0.3996700731826222
 167     0.0040615377894375
 168    -0.0040055865956470
 169     0.0943878846890311
 170    -0.0190840834188288
 171     0.0058558657981094
 172    -0.0211667407320031
 173    -0.3881296369211932
 174    -0.0456122547802368
 175     0.0298762414886260
 176    -0.0343136617352031
 177     0.0285408699718451
 178     0.0446606239840827
 179     0.0154641180969108
 180     0.0647270823331543
 181     0.0379524266227123
 182    -0.0363623459203156
 183     0.2341779197558890
 184     0.4053956729447549
 Sym= 109A
 Ene= 0.118203
 Spin= Alpha
 Occup= 2.000000
  1     0.0268708837158384
  2     0.0284084219364347
  3    -0.0476851190042466
  4     0.0240295321257700
  5     0.0679103448766052
  6     0.0423864658078658
  7    -0.0205888524126658
  8     0.1815268233310506
  9    -0.4089807554942751
 10     0.0012918848581239
 11     0.0021757925250113
 12    -0.0954525663217483
 13    -0.0195668170320072
 14    -0.0025087767353545
 15     0.0051000254214717
 16    -0.3939117102363154
 17     0.0144501612557519
 18     0.0090875045409106
 19    -0.0310331726288378
 20    -0.0291030023529505
 21    -0.0467495853008796
 22     0.0198639354179580
 23    -0.0667555638410177
 24    -0.0447459680827031
 25    -0.0348414274040518
 26    -0.2110088169035625
 27     0.4051503165543745
 28    -0.0071478652774992
 29     0.0079803141340165
 30     0.0174080209732358
 31     0.0952046140256371
 32     0.0034903192963768
 33    -0.0057461018729885
 34     0.5114896203929041
 35     0.0069035348729263
 36    -0.0119105671987988
 37     0.0392727190375721
 38     0.0209615934170675
 39    -0.0424079975805101
 40    -0.0306503180770958
 41     0.0015049149187972
 42    -0.0009139925559232
 43     0.0077124180210623
 44    -0.0252563738060971
 45    -0.0006501315332140
 46    -0.0006781136068243
 47     0.0015751144154221
 48     0.0057088093787532
 49    -0.0017064919387152
 50     0.0034699462898199
 51    -0.0010327786206492
 52     0.0026615136903001
 53    -0.0004314700309155
 54     0.0008366275181983
 55    -0.0007693330974555
 56     0.0010984802599870
 57     0.0007639551773512
 58     0.0022621744393713
 59    -0.0001256441477399
 60    -0.0003087818647729
 61     0.0027321840472265
 62    -0.0092067095872151
 63     0.0011200774275576
 64    -0.0008136446692268
 65    -0.0127463177296521
 66    -0.0060966261025317
 67     0.0141920177114034
 68     0.0114561753967871
 69     0.0004681241924899
 70    -0.0327367632630559
 71    -0.0259490161494894
 72     0.0049552988802669
 73    -0.0009468103224740
 74    -0.0002101180848569
 75     0.0109243635326251
 76    -0.0034458765031548
 77     0.0021980560596000
 78    -0.0345755757453178
 79    -0.0708674579955210
 80     0.0029238275779870
 81    -0.0283745875490116
 82     0.0006953390491763
 83     0.0744808521367429
 84     0.0142558978112041
 85    -0.0011609469449664
 86     0.0247189758842685
 87     0.0569026819528880
 88    -0.0036802308053237
 89     0.0045473102281891
 90    -0.0274601366605617
 91    -0.0592995795690135
 92    -0.0048379949373285
 93    -0.0050836800769723
 94    -0.0034067550713699
 95     0.0091438311170371
 96     0.0021761419712791
 97     0.0033809765789965
 98     0.0002444372022994
 99    -0.0074539049998641
 100    -0.0029090182968223
 101     0.0024392496046186
 102     0.0014373825084462
 103     0.0040885837434306
 104    -0.0008851108506748
 105     0.0004232049364644
 106    -0.0020849104355528
 107    -0.0040445310141664
 108    -0.0001859788561017
 109    -0.0000754205452155
 110     0.0014723060290202
 111     0.0028808082998256
 112    -0.0000557832461107
 113     0.0016121278184797
 114     0.0001834124762719
 115     0.0106003948280154
 116     0.0001566240301783
 117     0.0015984782718876
 118    -0.0000330772313842
 119    -0.0081440539412252
 120     0.0004025683201311
 121    -0.0018991319623933
 122     0.0046670122278024
 123    -0.0047845185781226
 124    -0.0011252824531678
 125     0.0010487707906764
 126     0.0070770124146814
 127    -0.0161387703809874
 128     0.0013044464891366
 129    -0.0004405628443183
 130    -0.0128381542854718
 131     0.0284936722562571
 132     0.0014190376742244
 133    -0.0092282570850381
 134    -0.0006008942702651
 135     0.0286455867040829
 136    -0.0043798346100913
 137     0.0006177811869331
 138     0.0131983881473173
 139    -0.0270366008596874
 140    -0.0010439763407084
 141    -0.0023276591387200
 142     0.0024698833609843
 143    -0.0019056793652222
 144    -0.0012841116973479
 145     0.0019546122174483
 146     0.0102413078567358
 147     0.0057521252371997
 148    -0.0003511467956471
 149    -0.0020837798747725
 150    -0.0037276674927251
 151     0.0058028783361424
 152    -0.0317705099763752
 153    -0.0034518239172357
 154     0.0100551331856029
 155    -0.1709429018794570
 156    -0.0084989907658968
 157    -0.0105512166458341
 158    -0.0118785521882227
 159     0.0094026520490558
 160    -0.0148546442005421
 161    -0.0048749859127435
 162     0.0216454744306011
 163     0.0075327246181725
 164     0.0069809443639797
 165     0.0819914703685313
 166     0.1399223302168380
 167     0.0014951448777597
 168    -0.0005121879565401
 169    -0.0319174814163681
 170     0.0065803285773449
 171     0.0018623210205426
 172    -0.0108982652219037
 173     0.1318693439566417
 174    -0.0197322854441119
 175     0.0142644498898164
 176     0.0074714773127997
 177    -0.0098660695932181
 178    -0.0167280338686998
 179    -0.0098426526463596
 180    -0.0233804886992550
 181    -0.0214400008926283
 182     0.0114534462062829
 183    -0.0495910772430236
 184    -0.1323893071202482
 Sym= 110A
 Ene= 0.119707
 Spin= Alpha
 Occup= 2.000000
  1    -0.0359733569454917
  2    -0.0031850509805717
  3    -0.0057268248227306
  4     0.0296058163335466
  5     0.0058062120003577
  6     0.0612707957952134
  7     0.0156870229857034
  8    -0.2571521262306586
  9     0.0605814377350732
 10     0.0202702052947174
 11     0.0154750439991289
 12     0.0092488025567570
 13     0.0037754577377874
 14    -0.0318757590249152
 15     0.1251616048613913
 16     0.0489497073375661
 17     0.2526353424814818
 18     0.1923224905705476
 19    -0.0306930387052035
 20     0.0049230745915826
 21     0.0147679952897372
 22    -0.0362061744675606
 23     0.0190671028715220
 24     0.0597601181440948
 25    -0.0166967159307642
 26    -0.1996476677069201
 27    -0.0183782990676494
 28    -0.0522655238971757
 29     0.0791572532419988
 30    -0.0003528794691503
 31    -0.0087153257923288
 32     0.0523918446716365
 33    -0.1234364075472972
 34    -0.0462381965490891
 35     0.1323433045915930
 36    -0.1563676818254371
 37    -0.0232793479511192
 38    -0.0486756830032331
 39    -0.0315810407947178
 40    -0.0476743576170779
 41    -0.0065726835993607
 42     0.0082873780946102
 43    -0.0027892723592542
 44     0.0138271114093953
 45    -0.0005333459536164
 46     0.0019992144639698
 47    -0.0019825336020741
 48    -0.0035632521570780
 49    -0.0039222610466305
 50    -0.0018280062082349
 51     0.0047008295148362
 52    -0.0010134589625520
 53    -0.0047814718130822
 54     0.0011604242487282
 55     0.0038405515374762
 56     0.0019722772491945
 57     0.0020530365413003
 58     0.0037876316624742
 59     0.0005521545859869
 60    -0.0020662395834302
 61     0.0031540388252896
 62    -0.0148614981051162
 63     0.0067033788149149
 64    -0.0083064099514074
 65     0.0296610588560307
 66     0.0461180216366567
 67     0.0251218227645866
 68     0.0505518753915442
 69    -0.0073065271619667
 70    -0.0093436218058175
 71    -0.1852280513162749
 72     0.0063329850965870
 73     0.0188225291925215
 74     0.0693202348485405
 75     0.1660941719615813
 76    -0.0248778988299017
 77     0.0035546748494391
 78    -0.0005290126098919
 79    -0.0119265059411039
 80    -0.0001855105944091
 81    -0.0004993553866246
 82    -0.0201241548500530
 83    -0.0888139131996025
 84     0.0042994320913885
 85     0.0025010605265529
 86    -0.0682500498035253
 87    -0.1476242016694067
 88     0.0088461105644225
 89     0.0025721802049636
 90    -0.0409326440432520
 91    -0.0857976087344600
 92    -0.0014050872396732
 93     0.0020777372368426
 94     0.0852364302115264
 95     0.1904560403521877
 96    -0.0122785041337025
 97    -0.0000471146695171
 98     0.0026801462988549
 99     0.0126041797921770
 100     0.0003738995612949
 101    -0.0070839618298708
 102     0.0123485350800381
 103    -0.0907909429060311
 104     0.0073213749262691
 105     0.0063025361595401
 106     0.0121848735028575
 107    -0.0909641813048378
 108    -0.0075280085987782
 109    -0.0062736271940504
 110     0.0125787496172098
 111     0.0914644910373008
 112    -0.0076065520667096
 113     0.0071403754641083
 114     0.0125009128181976
 115     0.0916230963569404
 116     0.0072424821218558
 117     0.0002225602485564
 118     0.0026323747458799
 119    -0.0142451586493080
 120     0.0004424887340712
 121    -0.0022634749743106
 122     0.0847816533607188
 123    -0.1894656339375512
 124    -0.0122848740470466
 125    -0.0024074169538472
 126    -0.0397639908127631
 127     0.0832865277820817
 128    -0.0011776861327801
 129    -0.0024879492630480
 130    -0.0691599214933716
 131     0.1500946710848952
 132     0.0089648381822026
 133    -0.0006672622806727
 134    -0.0198789517338397
 135     0.0915938937110968
 136     0.0038774628624562
 137    -0.0033713182133057
 138     0.0011663126025739
 139     0.0083414677946989
 140    -0.0001745750414494
 141    -0.0191920418440411
 142     0.0688899682972171
 143    -0.1650886661608283
 144    -0.0252408022783122
 145     0.0076137110022572
 146    -0.0081247315103994
 147     0.1851815866576316
 148     0.0065578598564064
 149    -0.0522266434651963
 150    -0.0792912546411070
 151     0.0015911983471525
 152    -0.0137515860327872
 153    -0.0526597222968321
 154     0.1239555509339931
 155    -0.0692431877532535
 156    -0.1325753026000076
 157    -0.1568815244152421
 158    -0.0373110029682169
 159     0.0043972975727842
 160     0.0036383229446535
 161     0.0287388451369289
 162    -0.0028868175549111
 163    -0.0595465720362124
 164     0.0166615595720041
 165     0.2663743696742169
 166     0.0793929162671674
 167     0.0203979345549917
 168    -0.0154580606696525
 169    -0.0135377458359197
 170     0.0046361833619113
 171     0.0319143414088018
 172    -0.1257178430681375
 173     0.0661703898727831
 174    -0.2534795043726750
 175     0.1926871264882262
 176    -0.0294790387027017
 177    -0.0061830780410426
 178    -0.0170049331974641
 179    -0.0372436829404388
 180    -0.0220368566653536
 181    -0.0621371991984975
 182    -0.0151584607045281
 183     0.1916373089299681
 184    -0.0362940237248954
 Sym= 111A
 Ene= 0.140304
 Spin= Alpha
 Occup= 2.000000
  1     0.0450778741927655
  2     0.0105962263133762
  3     0.0119181080770205
  4     0.0193400937115704
  5    -0.0241713035600981
  6     0.1470030903444291
  7    -0.1988629211251135
  8    -0.0142013603754274
  9     0.0002452621143360
 10    -0.0169142197470455
 11    -0.0304764834400836
 12     0.0001377809177963
 13    -0.0005916674134324
 14     0.0158719910980983
 15     0.1847170862715852
 16    -0.0024856784220973
 17     0.1769611710249060
 18    -0.2924209572624002
 19     0.0452668161893560
 20     0.0099460627551728
 21    -0.0116429176404755
 22    -0.0186622111301794
 23    -0.0239875809333294
 24     0.1500883681551782
 25     0.2008000105965112
 26    -0.0198453706366184
 27    -0.0014626173137810
 28    -0.0132884847843059
 29    -0.0231466035468323
 30    -0.0009232398484328
 31    -0.0010518724982021
 32     0.0335467613861549
 33     0.1667721829843779
 34    -0.0025585987451514
 35    -0.2148956755668225
 36     0.2396070976495725
 37     0.0368455002496925
 38    -0.0042840534038918
 39     0.0437371233562608
 40    -0.0025789008227288
 41     0.0029872973484309
 42    -0.0100647834950073
 43     0.0127211089491837
 44    -0.0319953190041409
 45     0.0022494365163471
 46    -0.0013586324406718
 47     0.0007423531048846
 48     0.0046389111218127
 49    -0.0049852426165349
 50     0.0040004450768780
 51     0.0011564357765919
 52    -0.0021107701613932
 53     0.0011989624082769
 54    -0.0021358807105120
 55    -0.0049932383176963
 56     0.0039641115630665
 57     0.0007715388324847
 58     0.0046423833032528
 59     0.0022798381400401
 60    -0.0013491658579518
 61     0.0127296339261724
 62    -0.0319167686787699
 63     0.0030530154468086
 64    -0.0102185431791324
 65     0.0440609056184946
 66    -0.0029553327407959
 67     0.0373864974865188
 68    -0.0043678559540564
 69     0.0320866674132003
 70     0.0051566862871685
 71     0.0441102963634455
 72    -0.0341216187290515
 73    -0.0299459340771846
 74    -0.0430714516890172
 75    -0.0931474345099175
 76     0.0291217786361111
 77    -0.0005253196978373
 78     0.0255146042425670
 79     0.0505723516642374
 80    -0.0009931229217104
 81    -0.0158897372753286
 82     0.0299692270032803
 83     0.1072303980134737
 84    -0.0001707172849575
 85    -0.0113430124832763
 86     0.0072320636835028
 87     0.0306272002666486
 88    -0.0031786008028042
 89     0.0052421069899991
 90    -0.0118624648180939
 91    -0.0045235518569922
 92     0.0070434337415899
 93    -0.0049827427830136
 94    -0.0437838695407133
 95    -0.0929118421267274
 96     0.0058568384782050
 97     0.0023235281503578
 98    -0.0019744276868797
 99     0.1485052615111838
 100    -0.0063861043971642
 101     0.0088346344186460
 102    -0.0018726910671648
 103    -0.0594240398375611
 104    -0.0017453169530850
 105    -0.0068373161481326
 106    -0.0045617030169420
 107    -0.0616890444825627
 108     0.0043876336042556
 109    -0.0068549127591086
 110     0.0043982008956461
 111    -0.0621367755605570
 112    -0.0043669069882688
 113     0.0088307607803061
 114     0.0016990980944894
 115    -0.0598569037408691
 116     0.0017781085598224
 117     0.0024331244412778
 118     0.0022845285556437
 119     0.1488010252175755
 120     0.0061907762843402
 121    -0.0049748044452326
 122     0.0433738568246862
 123    -0.0924484671158722
 124    -0.0057632568047737
 125     0.0052183279942224
 126     0.0120766759274772
 127    -0.0049425954181369
 128    -0.0071565644903074
 129    -0.0114008353993281
 130    -0.0068657611391971
 131     0.0299335278322190
 132     0.0031072625906228
 133    -0.0158735830244364
 134    -0.0300565266582103
 135     0.1075334408224802
 136     0.0003843756738228
 137    -0.0006002766101166
 138    -0.0257441444829250
 139     0.0511214288224924
 140     0.0010803105158584
 141    -0.0303699035857318
 142     0.0428897016002383
 143    -0.0930638573448750
 144    -0.0296032717270253
 145     0.0322908123900472
 146    -0.0051578276270664
 147     0.0444379440513557
 148     0.0345316590573276
 149     0.0132482989580134
 150    -0.0233574822472958
 151    -0.0010287457782604
 152     0.0010695841956770
 153     0.0338873725661012
 154     0.1691612397630587
 155     0.0031345437150343
 156    -0.2166704012799284
 157    -0.2429071735028171
 158    -0.0454608900128634
 159     0.0107721240245135
 160     0.0122003607708181
 161    -0.0196195658875901
 162    -0.0244727914967314
 163     0.1485687086085606
 164     0.2008743204877944
 165    -0.0139831268784706
 166    -0.0000312637003645
 167     0.0172821440316787
 168    -0.0308287008626656
 169     0.0002026811179531
 170     0.0007195508800158
 171     0.0159345186018993
 172     0.1865125845055943
 173     0.0028641913134251
 174     0.1787463861376324
 175     0.2950275516306117
 176    -0.0456982075011350
 177     0.0100042152444108
 178    -0.0117978108319928
 179     0.0188175586418213
 180    -0.0241961155874974
 181     0.1521854201598654
 182    -0.2032148342437292
 183    -0.0206446225299306
 184     0.0027781702599029
 Sym= 112A
 Ene= 0.141519
 Spin= Alpha
 Occup= 2.000000
  1    -0.0421996071639144
  2    -0.0118815292211096
  3    -0.0143474878732947
  4    -0.0240516683174104
  5     0.0248693496530456
  6    -0.1705300669800384
  7     0.2156724816101421
  8     0.0563889696379495
  9     0.0171837965046208
 10     0.0178492966322402
 11     0.0316072759472929
 12    -0.0006517180635998
 13    -0.0004697193822390
 14    -0.0087513155135589
 15    -0.2141834141582555
 16    -0.0026131201500593
 17    -0.2224494288378538
 18     0.2866376280459186
 19    -0.0424319787273674
 20    -0.0122765848309913
 21     0.0136344998041638
 22     0.0245611031274136
 23     0.0242453422571219
 24    -0.1708672190477554
 25    -0.2156724196557860
 26     0.0518596430986483
 27     0.0227039938606770
 28     0.0232551626472480
 29     0.0053850566466316
 30     0.0009490837256100
 31     0.0011302750012122
 32    -0.0486034566217469
 33    -0.1871265534409647
 34     0.0031858912251168
 35     0.1955369627464424
 36    -0.2551774008091828
 37    -0.0303881886087509
 38     0.0138226781647210
 39    -0.0199932579303357
 40     0.0191490382712727
 41    -0.0042517849982411
 42     0.0071934191162114
 43    -0.0119855305350160
 44     0.0327946972217808
 45    -0.0022018190501335
 46    -0.0014458699568738
 47    -0.0017646279430737
 48    -0.0023795179482680
 49     0.0016178044941738
 50    -0.0020094302240998
 51    -0.0007469121523414
 52    -0.0004335847751526
 53     0.0007656947095696
 54     0.0004157210017029
 55    -0.0015832249793786
 56     0.0019419864866850
 57     0.0017590232783448
 58     0.0023207572879588
 59     0.0021407038567239
 60     0.0014335460414095
 61     0.0116621024710738
 62    -0.0319445888962135
 63     0.0041844039214965
 64    -0.0072261964623781
 65     0.0199738585187326
 66    -0.0190248794525253
 67     0.0300607503603824
 68    -0.0138737239470999
 69    -0.0445726764104321
 70    -0.0003709681255444
 71     0.0115562043270828
 72     0.0425140085840057
 73     0.0342244710441419
 74    -0.0172542664780207
 75    -0.0535886387614508
 76    -0.0290565259574674
 77    -0.0007941141090557
 78     0.0041835722705232
 79     0.0255161333138442
 80    -0.0009870029921771
 81     0.0192622860392850
 82     0.0004946872083392
 83    -0.0353215571388959
 84    -0.0077794251715085
 85     0.0057222645351347
 86     0.0053412011713919
 87     0.0105447464925272
 88    -0.0061072164911730
 89     0.0029325685193993
 90     0.0246300758765836
 91     0.0471265924609391
 92    -0.0033614621047587
 93     0.0038723988861675
 94    -0.0147142607372953
 95    -0.0403834369656608
 96     0.0000038431033935
 97    -0.0006948954880024
 98    -0.0009014887092274
 99    -0.0075361517995331
 100     0.0008809030578760
 101     0.0006142745396407
 102    -0.0031970299115654
 103     0.0225659239102519
 104    -0.0006884102085410
 105    -0.0008708345073419
 106    -0.0021231666352704
 107     0.0230311391502997
 108     0.0010537914993432
 109     0.0008741907038432
 110    -0.0022164862580302
 111    -0.0231312484930132
 112     0.0010811548555660
 113    -0.0006421255536734
 114    -0.0032247208249956
 115    -0.0227226717464418
 116    -0.0006631183992546
 117     0.0006391836482217
 118    -0.0008828412304541
 119     0.0078902062989932
 120     0.0008400516933669
 121    -0.0037531402172292
 122    -0.0146244351109180
 123     0.0400498355159155
 124     0.0000397115782539
 125    -0.0029755840576324
 126     0.0242071732728958
 127    -0.0464158881440506
 128    -0.0034184073325589
 129    -0.0056351636313483
 130     0.0055710037565602
 131    -0.0111115835928344
 132    -0.0060496333754637
 133    -0.0187090372435294
 134     0.0003943713434479
 135     0.0344627372968907
 136    -0.0075288206950559
 137     0.0006847640251148
 138     0.0038314482734699
 139    -0.0244357087536175
 140    -0.0009959725899524
 141    -0.0338057330807129
 142    -0.0170741618602598
 143     0.0529572028860826
 144    -0.0286627797663165
 145     0.0438163240811532
 146    -0.0001800351292067
 147    -0.0112293371347816
 148     0.0420313674438027
 149     0.0227062104765960
 150    -0.0053654325303901
 151    -0.0011115871303034
 152     0.0014137212274212
 153     0.0480205339450802
 154     0.1856416767370324
 155     0.0039319567137435
 156    -0.1930331476090063
 157    -0.2531126897915255
 158    -0.0416555388012777
 159     0.0117949476569666
 160     0.0143551224706320
 161    -0.0238206270558271
 162    -0.0246618307118640
 163     0.1685074180214365
 164     0.2131268113081633
 165    -0.0552246945430746
 166     0.0169714324081266
 167     0.0178392960084951
 168    -0.0312845157011244
 169     0.0007410612259088
 170    -0.0003469347349542
 171     0.0085887736800483
 172     0.2114892898905197
 173    -0.0023683652010119
 174     0.2196271589059629
 175     0.2831071629672565
 176    -0.0419504436440777
 177     0.0120926390574567
 178    -0.0134788565215640
 179     0.0242190312898805
 180    -0.0239229575005748
 181     0.1693712166068718
 182    -0.2135015505931430
 183    -0.0515685784477214
 184     0.0237898059220207
 Sym= 113A
 Ene= 0.148561
 Spin= Alpha
 Occup= 2.000000
  1    -0.0021192340035578
  2    -0.0047345296558883
  3    -0.0072985124863287
  4    -0.0112188677289454
  5     0.0060182728147734
  6    -0.0693876585425035
  7     0.0689618000433252
  8     0.0780921515535988
  9     0.0411267311009812
 10     0.0060271707935678
 11     0.0083762886548729
 12    -0.0010198970995502
 13    -0.0020049892188098
 14     0.0112000962062917
 15    -0.0846794513680386
 16    -0.0082062041579333
 17    -0.1103582076733016
 18     0.0385872720250266
 19    -0.0021575749395212
 20    -0.0063821670603475
 21     0.0063876115349005
 22     0.0133303681354953
 23     0.0053709184960679
 24    -0.0652929371279889
 25    -0.0659256597477057
 26     0.0598723202691187
 27     0.0487566632576310
 28     0.0179531508644475
 29    -0.0286710688429043
 30     0.0004978734553852
 31     0.0001743085518855
 32    -0.0341676272047545
 33    -0.0801927177568093
 34     0.0011993153777172
 35    -0.0027138691583245
 36    -0.0805169459404824
 37     0.0070728473986600
 38     0.0196813043559567
 39     0.0444962874064290
 40     0.0346046661259470
 41    -0.0045190965969163
 42    -0.0045134820323308
 43     0.0007734745384307
 44     0.0071524242214979
 45    -0.0002529293188099
 46    -0.0062262952867863
 47    -0.0017444450679165
 48     0.0038199663528972
 49    -0.0103331721158223
 50     0.0046401140696535
 51     0.0037281165286361
 52    -0.0059951398019631
 53     0.0037683369069819
 54    -0.0060550127546961
 55    -0.0103117444292368
 56     0.0045998735361397
 57    -0.0017401453037958
 58     0.0038299605829388
 59    -0.0001638060824046
 60    -0.0062475619502178
 61     0.0009353056098938
 62     0.0070333885209989
 63    -0.0044529111883370
 64    -0.0044036769052278
 65     0.0443461533499169
 66     0.0346015354136271
 67     0.0074238191915063
 68     0.0203117160316104
 69    -0.0298095636848165
 70     0.0079391950282024
 71     0.0994890022994896
 72     0.0221420359468066
 73     0.0147632108750033
 74    -0.1254408550129349
 75    -0.3046508293219649
 76    -0.0053491022274749
 77    -0.0018586461295031
 78     0.0674298932449380
 79     0.1730415687150555
 80    -0.0047942308251341
 81     0.0092406168873512
 82     0.0678689114540544
 83     0.1527762312367865
 84    -0.0187827456914573
 85    -0.0131248037538344
 86     0.0097647219063954
 87     0.0551778034404185
 88    -0.0193278706431965
 89     0.0196127706151413
 90     0.0131506469944894
 91     0.0659385837997724
 92     0.0091092628741933
 93    -0.0022381224704786
 94    -0.1111196284742487
 95    -0.2514030404207149
 96     0.0096101245550658
 97     0.0033535625943464
 98    -0.0049277220032566
 99     0.3448540045733853
 100    -0.0136046833387551
 101     0.0198783890258471
 102    -0.0072370567575965
 103    -0.1377463357741495
 104    -0.0041075129721932
 105    -0.0172606018713896
 106    -0.0110849610154904
 107    -0.1365279494117941
 108     0.0101854301386990
 109    -0.0173981583816763
 110     0.0108845205132591
 111    -0.1365271082728328
 112    -0.0102279069368422
 113     0.0199505818383772
 114     0.0069595498778122
 115    -0.1377210438445266
 116     0.0042849044576825
 117     0.0036727411167635
 118     0.0056935478714343
 119     0.3451847985787059
 120     0.0132357593777842
 121    -0.0023093580648550
 122     0.1110436972951624
 123    -0.2521380917406797
 124    -0.0095102380280613
 125     0.0198174204646558
 126    -0.0129820639095182
 127     0.0658893069158136
 128    -0.0090892923682503
 129    -0.0132117107007857
 130    -0.0097440537629920
 131     0.0554274624233761
 132     0.0193676151921071
 133     0.0090002044573848
 134    -0.0679858969456451
 135     0.1539471081142292
 136     0.0190902945592483
 137    -0.0018148534546778
 138    -0.0675383654751803
 139     0.1735953580836621
 140     0.0050565875896677
 141     0.0146709237473113
 142     0.1258312436812392
 143    -0.3064502136161940
 144     0.0049221886066176
 145    -0.0299306583497802
 146    -0.0083408961176271
 147     0.1001660910102644
 148    -0.0223881263590478
 149    -0.0179613766242456
 150    -0.0289136828457509
 151     0.0006337810399691
 152    -0.0006934771875916
 153    -0.0345947178022121
 154    -0.0813696958269891
 155    -0.0015905753640634
 156    -0.0024022182959531
 157     0.0818602273241862
 158     0.0021982868848758
 159    -0.0047851134296024
 160    -0.0074294840156601
 161     0.0113326096454945
 162     0.0061425675171784
 163    -0.0701703179075043
 164    -0.0698719319072370
 165     0.0787291375480788
 166    -0.0414281014089849
 167    -0.0061510101182054
 168     0.0085035219252250
 169    -0.0010711335589579
 170     0.0020110145860751
 171     0.0112869416660528
 172    -0.0856018166231776
 173     0.0084041080830155
 174    -0.1114506037835080
 175    -0.0394404445839315
 176     0.0022654738736010
 177    -0.0064552217617630
 178     0.0064395232560038
 179    -0.0134614642008578
 180     0.0054484984438385
 181    -0.0661379701187531
 182     0.0668283926801956
 183     0.0602979005594637
 184    -0.0495152025098343
 Sym= 114A
 Ene= 0.207358
 Spin= Alpha
 Occup= 2.000000
  1    -0.0131098008175254
  2     0.0018188051913270
  3     0.0032640314386417
  4     0.0012119749311213
  5    -0.0032948533475224
  6     0.0160800887020039
  7    -0.0155257337746432
  8    -0.0250045584675000
  9    -0.0844125133375757
 10    -0.0151811022216436
 11    -0.0033140966592730
 12     0.0007842239984725
 13     0.0013203228364398
 14    -0.0100094472649758
 15     0.0076059431200215
 16     0.0008167342754740
 17     0.0176529524949022
 18     0.1046463412758699
 19    -0.0133456480790586
 20     0.0019560818074648
 21    -0.0019801367227676
 22    -0.0022746178573639
 23    -0.0035999300718034
 24     0.0156266459545224
 25     0.0147972105968976
 26    -0.0152877367198975
 27    -0.0947466475115330
 28     0.0325661652448245
 29     0.0008674594826279
 30    -0.0019827853228191
 31    -0.0007293877863941
 32     0.0029447157556445
 33     0.0889191156854564
 34    -0.0000045172296915
 35     0.0454571387564827
 36     0.0611396982031673
 37     0.0041564270804438
 38    -0.0463538776379266
 39    -0.0314878466294423
 40    -0.0608038592868921
 41     0.0033914566052851
 42     0.0029912988679052
 43    -0.0005484106333882
 44    -0.0061864861004275
 45     0.0021201612099848
 46     0.0016462075767949
 47    -0.0130463301944197
 48     0.0144255940705474
 49     0.0098943929040239
 50    -0.0045366861264290
 51    -0.0113786025261048
 52     0.0120932096181172
 53     0.0115613177063797
 54    -0.0123507281344289
 55    -0.0097013426796406
 56     0.0042216947019882
 57     0.0132369908016823
 58    -0.0144555405590578
 59    -0.0020471930371262
 60    -0.0015773706508010
 61     0.0007198165287083
 62     0.0059565296409841
 63    -0.0033466406146422
 64    -0.0027048717108165
 65     0.0313008597964172
 66     0.0606399649976497
 67    -0.0040024543898436
 68     0.0472665960120386
 69    -0.0582723221450575
 70     0.0020123715746841
 71    -0.0058234536897244
 72     0.0204263585454448
 73    -0.0038651855362295
 74     0.1086221378579040
 75     0.2528333102727468
 76    -0.0033176657141149
 77    -0.0076351059783498
 78    -0.0941975628103168
 79    -0.2250047772202257
 80     0.0175144927811261
 81    -0.0163770474731738
 82    -0.0917574979565428
 83    -0.2181882397326604
 84     0.0231182464899643
 85     0.0087258396443937
 86     0.0854021361438101
 87     0.1649486248391638
 88    -0.0042000652531719
 89    -0.0018136550814989
 90     0.0897543446510106
 91     0.1603048212871634
 92    -0.0117615836341584
 93     0.0030181478766611
 94    -0.0363727099789680
 95    -0.0970824033450243
 96     0.0112589960358383
 97    -0.0022304909656767
 98    -0.0055175168747532
 99    -0.2204633042357594
 100     0.0076889573491428
 101     0.0029951762817705
 102    -0.0153667721283371
 103     0.2466411974285178
 104     0.0014155730569315
 105     0.0043605253898968
 106    -0.0129148427126418
 107     0.2480872360643324
 108     0.0007250384608172
 109    -0.0043625829901907
 110    -0.0137755891813564
 111    -0.2473148148314039
 112     0.0009887134276000
 113    -0.0031925731673290
 114    -0.0159450285854589
 115    -0.2458211981293346
 116     0.0016184669973347
 117     0.0022154117366735
 118    -0.0051081644433534
 119     0.2185419547269494
 120     0.0073339731846158
 121    -0.0029828634784166
 122    -0.0370427083361323
 123     0.0989366144528096
 124     0.0113417232645721
 125     0.0014686513002955
 126     0.0899770795225130
 127    -0.1612383398326591
 128    -0.0118413478928668
 129    -0.0088370435758227
 130     0.0856583828839062
 131    -0.1662871294935347
 132    -0.0044796909827933
 133     0.0162609258570239
 134    -0.0913978790057093
 135     0.2187043864469616
 136     0.0232713511632815
 137     0.0077392540869381
 138    -0.0942030526902179
 139     0.2256090471027882
 140     0.0177415129670025
 141     0.0035978614509786
 142     0.1085295890192858
 143    -0.2532468582572234
 144    -0.0038145054010525
 145     0.0587771234045622
 146     0.0022806926368743
 147     0.0059223470432726
 148     0.0202847908024018
 149     0.0327059169970680
 150    -0.0008663312101312
 151     0.0016520219787949
 152    -0.0004452450010221
 153    -0.0029698946008898
 154    -0.0891794338435525
 155     0.0001874243475332
 156    -0.0456555578054403
 157     0.0613362769698241
 158    -0.0131689096748111
 159    -0.0018204654362235
 160    -0.0031507556359015
 161     0.0011883772473433
 162     0.0033083087164919
 163    -0.0161667275354794
 164    -0.0155471050458810
 165     0.0252086725175716
 166    -0.0856899421983570
 167    -0.0152445628904051
 168     0.0033214899483053
 169    -0.0006738755190405
 170     0.0013577835143981
 171     0.0100446959841091
 172    -0.0075587618100549
 173     0.0008481202243568
 174    -0.0176367017427155
 175     0.1051079724094527
 176    -0.0134027485987728
 177    -0.0019661580210902
 178     0.0021064217524986
 179    -0.0022983989090453
 180     0.0036004152560145
 181    -0.0156144668968135
 182     0.0148371552958773
 183     0.0151758784484842
 184    -0.0940859257405099
 Sym= 115A
 Ene= 0.223255
 Spin= Alpha
 Occup= 2.000000
  1     0.0258157857891271
  2     0.0000567540939989
  3    -0.0045479493008173
  4    -0.0024031269963349
  5     0.0110970146565197
  6    -0.0223435856878163
  7     0.0217005045868845
  8    -0.0110024489486651
  9     0.2016895046087499
 10     0.0497184183333391
 11     0.0068243614957155
 12    -0.0006743423633243
 13    -0.0001425979563357
 14     0.0096533841354225
 15     0.0195914159603273
 16     0.0012340073157443
 17    -0.0009187895292833
 18    -0.2728632616796839
 19     0.0261170037885648
 20     0.0003024359149167
 21     0.0021993515800516
 22     0.0023505478619103
 23     0.0113285109115040
 24    -0.0231843435093395
 25    -0.0217179341850209
 26    -0.0112053446890886
 27     0.2208575178982777
 28    -0.1076838516421144
 29     0.0356197327022847
 30     0.0040216776271949
 31     0.0028247727853392
 32     0.0212770054981851
 33    -0.1816916793423269
 34     0.0026658233385960
 35    -0.0212895993722541
 36    -0.1522582231490946
 37    -0.0709943823627134
 38     0.1753677601971749
 39    -0.0599505822211653
 40     0.1896474821348684
 41    -0.0109280368972004
 42     0.0296836107737205
 43    -0.0239961083348955
 44     0.0561189329759904
 45     0.0149574012523485
 46    -0.0195096766585672
 47     0.0181556316178834
 48    -0.0231713512718513
 49     0.0120720043756685
 50    -0.0161188447293164
 51     0.0084001998170280
 52    -0.0190719356698422
 53     0.0083752179815593
 54    -0.0190112964759445
 55     0.0120341542936182
 56    -0.0160677457859397
 57     0.0181948152470204
 58    -0.0230391234532129
 59     0.0148711864374745
 60    -0.0193576918620629
 61    -0.0235104483158967
 62     0.0550164070491308
 63    -0.0110057076014607
 64     0.0300490993124851
 65    -0.0596477422691021
 66     0.1881312752179333
 67    -0.0710665826928142
 68     0.1759897824002790
 69     0.2675460868303813
 70    -0.0076757205766246
 71    -0.1248567493039702
 72    -0.0874639809141078
 73    -0.0012481354429126
 74    -0.0193537775868315
 75    -0.0553883971881195
 76     0.0062133661048984
 77     0.0495830458303877
 78     0.0432975166268031
 79     0.0793980907502897
 80    -0.0326986062235691
 81     0.0594004527256204
 82     0.0350792332340717
 83     0.0682664680379124
 84    -0.0296863300607590
 85    -0.0105365692465775
 86    -0.0426791707976804
 87    -0.1096096600172057
 88     0.0173879837546504
 89    -0.0215584250859857
 90    -0.0436634175287443
 91    -0.1040398543184490
 92     0.0078204649352787
 93     0.0075806227795420
 94     0.0621006941719282
 95     0.1332476824527354
 96    -0.0079381415621148
 97    -0.0113531547767016
 98     0.0039434733674874
 99    -0.0826383889883579
 100     0.0098044013724040
 101    -0.0198042056863795
 102     0.0009047771059362
 103     0.0301553327768073
 104     0.0051765642518186
 105    -0.0006323802481330
 106     0.0145702224396589
 107     0.0236542888140818
 108    -0.0003446996208644
 109    -0.0005639260639140
 110    -0.0145651020194453
 111     0.0240894024545658
 112     0.0003812315459421
 113    -0.0197879059816246
 114    -0.0008492012088879
 115     0.0305456350867861
 116    -0.0052032220557848
 117    -0.0114313247649891
 118    -0.0041540726451244
 119    -0.0831106634292113
 120    -0.0096862453379890
 121     0.0075408768253570
 122    -0.0618317523749807
 123     0.1333565249455736
 124     0.0078656249060662
 125    -0.0217236188733090
 126     0.0434240656859727
 127    -0.1037068165369999
 128    -0.0078568944462022
 129    -0.0104741188303292
 130     0.0424206852243232
 131    -0.1094073852966055
 132    -0.0174413879981020
 133     0.0589489141768891
 134    -0.0343019253704107
 135     0.0680434383726575
 136     0.0294489875281058
 137     0.0494621962120417
 138    -0.0427773240887716
 139     0.0789544718516979
 140     0.0326153679307404
 141    -0.0014094331782028
 142     0.0192138377568899
 143    -0.0548219957292353
 144    -0.0063278561888462
 145     0.2667824593607991
 146     0.0090306363623673
 147    -0.1240329003800269
 148     0.0868970193446727
 149     0.1070752396589879
 150     0.0355288806660722
 151     0.0029728414701095
 152    -0.0014296439367738
 153     0.0213435640338248
 154    -0.1804165896274740
 155    -0.0023850255688876
 156    -0.0213923415091649
 157     0.1512922720879819
 158    -0.0257686973134759
 159     0.0000488818067208
 160    -0.0041847777449357
 161     0.0023347351386966
 162     0.0110698469595496
 163    -0.0222337350200732
 164    -0.0212597641465364
 165    -0.0107888567444524
 166    -0.2033532213783278
 167    -0.0495194570491482
 168     0.0067719278512234
 169    -0.0003476903565891
 170     0.0001750314495793
 171     0.0095717369881116
 172     0.0197794493603639
 173    -0.0012655765086535
 174    -0.0006403886263358
 175     0.2721981322267378
 176    -0.0260415953211224
 177     0.0003193974553611
 178     0.0025266116585484
 179    -0.0023701112028939
 180     0.0111660258686163
 181    -0.0229278609396692
 182     0.0216132256858764
 183    -0.0114356981089418
 184    -0.2171433461563147
 Sym= 116A
 Ene= 0.226806
 Spin= Alpha
 Occup= 2.000000
  1    -0.0224662864430175
  2    -0.0013890122154745
  3     0.0035059029196175
  4     0.0023845841564812
  5    -0.0114327750744976
  6     0.0173042557222392
  7    -0.0165267870598161
  8     0.0291401645028967
  9    -0.1900135317430883
 10    -0.0507505590202810
 11    -0.0060696713425852
 12     0.0003061109085728
 13    -0.0006786856956589
 14    -0.0055278435834450
 15    -0.0297958380170254
 16    -0.0013984978923725
 17    -0.0096360156063171
 18     0.2592211147142416
 19    -0.0226390481397341
 20    -0.0016658592273288
 21    -0.0016195075796950
 22    -0.0016575433082673
 23    -0.0114019333209479
 24     0.0184240004759436
 25     0.0169225693936582
 26     0.0232103022053794
 27    -0.2054575363782031
 28     0.1075650558893652
 29    -0.0423099381084448
 30    -0.0034140507700003
 31    -0.0028470723717838
 32    -0.0266533971213196
 33     0.1600707938979910
 34    -0.0035155277677457
 35    -0.0062846165659468
 36     0.1441385050283772
 37     0.0868526112332534
 38    -0.1905491066576746
 39     0.0974932569688124
 40    -0.1962740289397470
 41     0.0152692642220161
 42    -0.0433985400197018
 43     0.0284843274554784
 44    -0.0683015767549453
 45    -0.0238863075337685
 46     0.0303556571758669
 47    -0.0103881917337447
 48     0.0122975609430479
 49    -0.0101699744594990
 50     0.0164618847252069
 51    -0.0077734960730608
 52     0.0187002536855053
 53     0.0077045281741222
 54    -0.0185911276570749
 55     0.0101272422191989
 56    -0.0163612605834623
 57     0.0104908191763278
 58    -0.0124402222072099
 59     0.0238730736373914
 60    -0.0304026774042586
 61    -0.0282223333684948
 62     0.0676498195597611
 63    -0.0154958545396094
 64     0.0439044080475607
 65    -0.0975881861684561
 66     0.1964154651877011
 67    -0.0877313173439902
 68     0.1924101342051200
 69    -0.2890466900101857
 70     0.0069976907338455
 71     0.1490190536517368
 72     0.0920255618116083
 73     0.0037045407345599
 74    -0.0488498086276796
 75    -0.1002852726132017
 76    -0.0049636007608344
 77    -0.0591872927404058
 78     0.0151138081709698
 79     0.0648180340714081
 80     0.0270290989912900
 81    -0.0605228519160539
 82     0.0230873719367288
 83     0.0744369213311552
 84     0.0234215477535551
 85     0.0156989341219905
 86    -0.0195496659906921
 87    -0.0203554494763175
 88    -0.0118998930961374
 89     0.0163806250273057
 90    -0.0204111892656113
 91    -0.0251869997550693
 92    -0.0054820409950021
 93    -0.0072364202892249
 94    -0.0107325481196887
 95    -0.0099387867542730
 96     0.0013146517492378
 97     0.0083053212694145
 98    -0.0009903937260532
 99     0.1087907601205481
 100    -0.0137869429657736
 101     0.0059577252940235
 102     0.0057000129382430
 103    -0.1057571307167054
 104    -0.0062724014501802
 105     0.0047351719532986
 106    -0.0044275994875302
 107    -0.1039620350787543
 108    -0.0027244033956639
 109    -0.0046984120141792
 110    -0.0041429637869617
 111     0.1038214578448716
 112    -0.0028332154314421
 113    -0.0059456787563632
 114     0.0059376645257984
 115     0.1056164571205193
 116    -0.0063823864237445
 117    -0.0083526047167943
 118    -0.0012212943055864
 119    -0.1085318700232746
 120    -0.0136378844998093
 121     0.0071893646169418
 122    -0.0105536884684976
 123     0.0098557033174783
 124     0.0012862989623906
 125    -0.0164602222022960
 126    -0.0203423861934547
 127     0.0252519179172530
 128    -0.0055390058197049
 129    -0.0156559458843128
 130    -0.0195687923764204
 131     0.0205583908999280
 132    -0.0119036862270758
 133     0.0605861133679607
 134     0.0234080801815391
 135    -0.0743081772357702
 136     0.0233754836096685
 137     0.0594420428305515
 138     0.0153014650365666
 139    -0.0649848605600389
 140     0.0271106092837924
 141    -0.0037255931539215
 142    -0.0487352083564952
 143     0.1006320255738158
 144    -0.0048212762360709
 145     0.2903949161750572
 146     0.0085131907101563
 147    -0.1493000322670147
 148     0.0923255996380499
 149     0.1077948689531586
 150     0.0425412393736365
 151     0.0024040783205173
 152    -0.0013855429912863
 153     0.0269540904515377
 154    -0.1601546831156657
 155    -0.0033346605954366
 156     0.0060709163957635
 157     0.1443566645600264
 158    -0.0226251985246879
 159     0.0013804010501558
 160    -0.0031860487740245
 161     0.0023438803683844
 162     0.0115002852148357
 163    -0.0173480777461436
 164    -0.0161987943210046
 165    -0.0291279431099916
 166    -0.1931939701682150
 167    -0.0509597527092636
 168     0.0060692347262829
 169     0.0000182177809943
 170    -0.0006680801373875
 171     0.0055019667484926
 172     0.0301798975560746
 173    -0.0014737253448852
 174     0.0099431621696480
 175     0.2608062900941397
 176    -0.0227696238855413
 177     0.0016951449771307
 178     0.0019570908280848
 179    -0.0016888816605872
 180     0.0113165341686593
 181    -0.0183560216044529
 182     0.0169884627986103
 183    -0.0235025125628112
 184    -0.2035686965632615
 Sym= 117A
 Ene= 0.239292
 Spin= Alpha
 Occup= 2.000000
  1     0.0025914028653147
  2     0.0024362306821099
  3     0.0001324291737338
  4    -0.0008682848781371
  5     0.0044236612086043
  6     0.0008481276794600
  7    -0.0014197354457681
  8    -0.0334182587630948
  9     0.0488248100805131
 10     0.0189267628793892
 11     0.0009449799442003
 12     0.0002917540185448
 13     0.0010947396566122
 14    -0.0030211847262319
 15     0.0268592006652095
 16    -0.0001420471441041
 17     0.0182805118259805
 18    -0.0625130189477866
 19     0.0023939312900098
 20     0.0024782039314260
 21     0.0001594834795597
 22    -0.0000812821727258
 23     0.0039024216428475
 24     0.0002223476637215
 25     0.0007257535726931
 26    -0.0247862316784037
 27     0.0463534394099541
 28    -0.0333747325230588
 29     0.0211815932904534
 30    -0.0000796125143075
 31     0.0007155581082489
 32     0.0146423691080138
 33    -0.0208803910930674
 34     0.0026786981745858
 35     0.0422145262268821
 36    -0.0357385242334600
 37    -0.0578335824522767
 38     0.1014124442981102
 39    -0.0873716137295897
 40     0.0829748048476650
 41    -0.0228703981525320
 42     0.0506656052533352
 43    -0.0128690469206096
 44     0.0434139655054522
 45     0.0250576416209681
 46    -0.0330856049833107
 47    -0.0049175457858362
 48     0.0085340472669273
 49     0.0007095689080375
 50    -0.0145409860377119
 51     0.0158367454147111
 52    -0.0273564545307036
 53     0.0156184520574014
 54    -0.0268328377944446
 55     0.0008581265841006
 56    -0.0149401127767629
 57    -0.0047688973837399
 58     0.0077565080002135
 59     0.0248304338252146
 60    -0.0328799391232864
 61    -0.0127385060863544
 62     0.0429742220780277
 63    -0.0228808651645265
 64     0.0503674387252690
 65    -0.0868897230356888
 66     0.0828231804986913
 67    -0.0581023128315038
 68     0.1011725404715865
 69     0.1305058007615217
 70    -0.0015857180171444
 71    -0.0719919640738466
 72    -0.0351000720047921
 73    -0.0045223845128918
 74     0.1042979215934685
 75     0.2378107842045102
 76    -0.0010295938434269
 77     0.0429672878585134
 78    -0.0892171395755219
 79    -0.2224005608445970
 80     0.0001933038838965
 81     0.0206279739610849
 82    -0.0899603847657755
 83    -0.2232211956042569
 84    -0.0029563564804067
 85    -0.0292243016817823
 86     0.1004634330239754
 87     0.2290232816719485
 88    -0.0142337019740705
 89     0.0113095253806063
 90     0.0986182830024533
 91     0.2295965406835547
 92     0.0019467281494130
 93    -0.0004881436078978
 94    -0.1177382482607817
 95    -0.2646889116535249
 96     0.0113127084537514
 97    -0.0046112692089882
 98    -0.0088880457116124
 99     0.1482439779780697
 100    -0.0021673059591833
 101     0.0143710175951335
 102    -0.0169958884998685
 103    -0.0463079938640614
 104    -0.0012901776216925
 105    -0.0331173014037589
 106    -0.0092210986726077
 107    -0.0477245061264039
 108     0.0101215004443869
 109    -0.0331463657489695
 110     0.0094128575675044
 111    -0.0489936858889163
 112    -0.0101604620896000
 113     0.0142512039525507
 114     0.0170431408639930
 115    -0.0475605769056516
 116     0.0014006165110185
 117    -0.0043284435529422
 118     0.0094109173422360
 119     0.1498012141034774
 120     0.0021926375355801
 121    -0.0007048663377832
 122     0.1178158758514638
 123    -0.2654817657010963
 124    -0.0112102515025363
 125     0.0115086984176735
 126    -0.0979867859237748
 127     0.2293841590793794
 128    -0.0018281057048219
 129    -0.0289985051421961
 130    -0.1000620113014090
 131     0.2293756480521379
 132     0.0144844955501168
 133     0.0205104574106873
 134     0.0894008183511860
 135    -0.2223434467516322
 136     0.0029153061636945
 137     0.0427646731631564
 138     0.0888590176922810
 139    -0.2219436855112996
 140    -0.0002946222319541
 141    -0.0043160602656205
 142    -0.1036138840025398
 143     0.2370926109126581
 144     0.0014975612544660
 145     0.1302291292997588
 146     0.0021141012164237
 147    -0.0719015363559695
 148     0.0352818396314779
 149     0.0332659571233408
 150     0.0212021270091338
 151    -0.0003726496212150
 152    -0.0001644672687976
 153     0.0147513117334347
 154    -0.0206956584537719
 155    -0.0027141382739447
 156     0.0420115074981520
 157     0.0356207265874882
 158    -0.0026272237277942
 159     0.0024205671088190
 160     0.0002190722340337
 161     0.0008677192001964
 162     0.0044293053963302
 163     0.0008466192682179
 164     0.0015872426533837
 165    -0.0334434925816902
 166    -0.0494501991671453
 167    -0.0189199081013120
 168     0.0009364895207682
 169     0.0004091623403190
 170    -0.0011294573571695
 171    -0.0030439842942042
 172     0.0269022129479485
 173     0.0000598263032663
 174     0.0183359945157648
 175     0.0628163590090565
 176    -0.0024229985502887
 177     0.0024877303936376
 178     0.0002545154594281
 179     0.0000840155930530
 180     0.0038405480000770
 181     0.0002326796309382
 182    -0.0007076097701218
 183    -0.0246808944014356
 184    -0.0456418082785913
 Sym= 118A
 Ene= 0.246230
 Spin= Alpha
 Occup= 2.000000
  1    -0.0003740451255426
  2     0.0005141324427200
  3     0.0013514947371617
  4     0.0004484953847500
  5     0.0012782587604122
  6     0.0005887366460100
  7    -0.0004924083159742
  8    -0.0013387769985806
  9     0.0162074059115875
 10     0.0027271571020740
 11     0.0000492670007934
 12     0.0001311125498697
 13    -0.0012754856394410
 14    -0.0003599967673150
 15     0.0059504122917553
 16    -0.0017572985262189
 17     0.0037175094761416
 18     0.0004729370882974
 19    -0.0008425785262347
 20     0.0004996761483944
 21     0.0013818415234413
 22     0.0006488220521343
 23     0.0006942172561536
 24     0.0003891076353667
 25    -0.0007519626272542
 26    -0.0099434558997126
 27    -0.0068357772496268
 28    -0.0024145603465857
 29     0.0010143368358890
 30    -0.0045703642365039
 31    -0.0018954332233446
 32     0.0004732053362442
 33    -0.0042339998873823
 34    -0.0002596520993029
 35     0.0113001199456877
 36    -0.0064693392816247
 37    -0.0250714094869125
 38     0.0393004474180234
 39    -0.0029818777489802
 40     0.0009089840260808
 41    -0.0428696384109850
 42     0.1005306770735720
 43     0.0304169167888648
 44    -0.0697583082568412
 45    -0.1185192054400794
 46     0.2793449659942167
 47     0.1113797026447458
 48    -0.2609170637796324
 49     0.1208018403001107
 50    -0.2916453334344294
 51    -0.1290434253017578
 52     0.3046423233252102
 53     0.1296914569504598
 54    -0.3056104526801834
 55    -0.1201916006592961
 56     0.2909296046597292
 57    -0.1110904016059590
 58     0.2606492651545816
 59     0.1192449231138296
 60    -0.2808208156110839
 61    -0.0306862858310350
 62     0.0704622235489025
 63     0.0428761382486004
 64    -0.1009187851243398
 65     0.0025016282888253
 66    -0.0001728944340854
 67     0.0248701793979271
 68    -0.0389068069963269
 69     0.0188675803065326
 70    -0.0138818283741325
 71    -0.0010343161984352
 72    -0.0050034900949025
 73     0.0018133033769474
 74    -0.0200322250814307
 75     0.0371590177704862
 76    -0.0019803676016330
 77     0.0346153596429741
 78    -0.0426280684622827
 79    -0.0096277429864772
 80    -0.0138342137571494
 81    -0.0176430231057388
 82    -0.0396295885963835
 83    -0.0101833512422389
 84     0.0073163702190141
 85     0.0997976838752828
 86    -0.0608240158772806
 87     0.0567167624231652
 88     0.0234368789127938
 89    -0.0917124597629969
 90    -0.0574661197156234
 91     0.0532639864308038
 92    -0.0246252159011145
 93     0.0007958204143251
 94    -0.0552864531640058
 95    -0.0480706317191331
 96     0.0021639090903939
 97     0.0004520732967294
 98    -0.0528088577114358
 99     0.0767874135645923
 100    -0.0034383555835979
 101    -0.1014331093429594
 102    -0.0874670243769825
 103    -0.0404955993222720
 104     0.0309441167547585
 105     0.1066902198975022
 106    -0.0910873976473126
 107    -0.0408769700206298
 108    -0.0308053597998303
 109    -0.1073310953960896
 110    -0.0914192101494430
 111     0.0409203417532802
 112    -0.0311600791020158
 113     0.1008085879342911
 114    -0.0870026973208262
 115     0.0405827100018185
 116     0.0306144063256617
 117    -0.0006780678190626
 118    -0.0530357193351514
 119    -0.0764227928758779
 120    -0.0033662348090574
 121    -0.0007347795132649
 122    -0.0550996184487678
 123     0.0477016719248809
 124     0.0021108078313663
 125     0.0912969370726198
 126    -0.0576386316262101
 127    -0.0527961566540222
 128    -0.0242532166464326
 129    -0.1004804478429059
 130    -0.0613982144922177
 131    -0.0562777930690307
 132     0.0237869172933255
 133     0.0179050475589020
 134    -0.0394667440816783
 135     0.0097390618731337
 136     0.0074121528305906
 137    -0.0346527796453540
 138    -0.0425377198331397
 139     0.0091861096422294
 140    -0.0137257159507002
 141    -0.0019586345184212
 142    -0.0203247656295084
 143    -0.0366749946088424
 144    -0.0019071961667086
 145    -0.0184379353865772
 146    -0.0139950850426721
 147     0.0009847309102838
 148    -0.0049866280131212
 149    -0.0023861104466120
 150    -0.0009982516555540
 151     0.0046050825136673
 152    -0.0019484573659424
 153    -0.0005005773135369
 154     0.0042404792678080
 155    -0.0002533260039939
 156    -0.0110907826563310
 157    -0.0064058075450651
 158    -0.0003563300701869
 159    -0.0005052808838969
 160    -0.0013682710111705
 161     0.0004553564920047
 162    -0.0012681958292099
 163    -0.0005636971531645
 164    -0.0004847419707125
 165     0.0012448248816330
 166     0.0162797603973929
 167     0.0026920023497369
 168    -0.0000412299575438
 169    -0.0001432044163782
 170    -0.0012805740318653
 171     0.0003616471937428
 172    -0.0058521912466690
 173    -0.0017589272551968
 174    -0.0036597093773562
 175     0.0003753252071631
 176    -0.0008274454725243
 177    -0.0004922775997768
 178    -0.0013940739405837
 179     0.0006483946951539
 180    -0.0006764513570722
 181    -0.0003585341559870
 182    -0.0007784916370836
 183     0.0098948336246385
 184    -0.0070052873339046
 Sym= 119A
 Ene= 0.249448
 Spin= Alpha
 Occup= 2.000000
  1     0.0000534527608498
  2     0.0004419183340937
  3     0.0019975764462993
  4     0.0006924824243659
  5     0.0016864012075807
  6     0.0006371635457720
  7    -0.0002159189839454
  8     0.0018123784058686
  9     0.0236923463114101
 10     0.0028835719871447
 11     0.0000750817587998
 12     0.0000043381884968
 13    -0.0019904981247913
 14    -0.0000503352919131
 15     0.0056722509188373
 16    -0.0026000557307749
 17     0.0026907767191444
 18    -0.0009230491441018
 19    -0.0006632369744551
 20     0.0004703246918687
 21     0.0019198363052754
 22     0.0009962012722652
 23     0.0008079406013598
 24     0.0002352615553634
 25    -0.0017818977893654
 26    -0.0115895032932784
 27    -0.0094015790554505
 28    -0.0022778600513022
 29    -0.0000742470776729
 30    -0.0065248763183722
 31    -0.0029258047856286
 32    -0.0003548735607411
 33    -0.0079892725427995
 34    -0.0002377504190250
 35     0.0108763244482706
 36    -0.0075305005242173
 37    -0.0293043174379691
 38     0.0535333618369342
 39     0.0034539795368475
 40    -0.0097311676196834
 41    -0.0573787157841946
 42     0.1519047359189938
 43     0.0364339643972517
 44    -0.0970988314850684
 45    -0.1629875954016410
 46     0.3802592487430275
 47     0.0950699832934231
 48    -0.2365843818571571
 49     0.0579458065006331
 50    -0.1404673920274997
 51    -0.1418758795829115
 52     0.3202620547596672
 53    -0.1420580787685725
 54     0.3199911455585220
 55     0.0569433911612321
 56    -0.1382732954901212
 57     0.0942350520714897
 58    -0.2350201292856500
 59    -0.1635109804355765
 60     0.3811991484090512
 61     0.0367130565084456
 62    -0.0977905977508996
 63    -0.0574828200919617
 64     0.1526113417736757
 65     0.0039614128542719
 66    -0.0107798600952578
 67    -0.0291029547135182
 68     0.0532411701171749
 69     0.0178898759729258
 70    -0.0194887665846593
 71     0.0045074601097809
 72    -0.0087214711202937
 73     0.0089145069084606
 74    -0.0268138472283415
 75     0.0218817454061248
 76    -0.0004061185160771
 77     0.0505975289183812
 78    -0.0460703867329454
 79     0.0112245407566473
 80    -0.0222785928314214
 81    -0.0195527742296871
 82    -0.0367283323521075
 83     0.0026801914996030
 84     0.0059156512840017
 85     0.1475257376512407
 86    -0.0722193516563468
 87     0.0380018728830661
 88     0.0397608050786108
 89    -0.0724871036273015
 90    -0.0417367079147217
 91     0.0339588755345835
 92    -0.0134202353440747
 93     0.0057425697528668
 94    -0.0399453928268460
 95    -0.0233419402367930
 96     0.0037599076763769
 97     0.0142956922994024
 98     0.0032038082018109
 99     0.0305021592642705
 100    -0.0043150022439810
 101    -0.0459489102569484
 102    -0.0225506671973449
 103    -0.0019778876435636
 104    -0.0003961463056161
 105     0.1345058952144451
 106    -0.0604310117335079
 107     0.0036944193409980
 108    -0.0313578699922358
 109     0.1347251997081987
 110     0.0604569960510794
 111     0.0039668295617395
 112     0.0315878999517918
 113    -0.0450562141643940
 114     0.0220226824346892
 115    -0.0017771475509792
 116     0.0007120476623482
 117     0.0142672026163375
 118    -0.0033442151419053
 119     0.0301443219906506
 120     0.0043591472753652
 121     0.0058573021077518
 122     0.0397668464946053
 123    -0.0230802398152748
 124    -0.0038641483945215
 125    -0.0716719332735118
 126     0.0415225703458586
 127     0.0336318765760315
 128     0.0129902732021886
 129     0.1479709794602200
 130     0.0725462300316037
 131     0.0376849659904183
 132    -0.0400640015340623
 133    -0.0197913392765536
 134     0.0366258840459057
 135     0.0028526178392467
 136    -0.0060259149210304
 137     0.0507721796532469
 138     0.0460505227211780
 139     0.0114173061553095
 140     0.0221018488799198
 141     0.0090415951240491
 142     0.0269166488342615
 143     0.0216102420396727
 144     0.0002970583019326
 145     0.0174892462075806
 146     0.0196182317416023
 147     0.0045087106431494
 148     0.0086836614768329
 149     0.0022576438400633
 150    -0.0000764124294266
 151    -0.0065746355883584
 152     0.0029812654165239
 153    -0.0003068172485392
 154    -0.0079548036589781
 155     0.0002175883362912
 156     0.0106671710131254
 157     0.0074394626986748
 158    -0.0000721859621296
 159     0.0004340058149042
 160     0.0020246700147043
 161    -0.0007060049801850
 162     0.0016760299552850
 163     0.0006151268603029
 164     0.0002146514330899
 165     0.0019232716239202
 166    -0.0238198717885726
 167    -0.0028494732380641
 168     0.0000616119684952
 169     0.0000133775314949
 170     0.0020060854064250
 171    -0.0000577935046407
 172     0.0055798298782028
 173     0.0026183212027934
 174     0.0026498004013465
 175     0.0010405603544117
 176     0.0006517787343757
 177     0.0004645291843386
 178     0.0019385825979319
 179    -0.0009975055253319
 180     0.0007848327984538
 181     0.0002001211761332
 182     0.0018128860661867
 183    -0.0115963322832289
 184     0.0096717210493656
 Sym= 120A
 Ene= 0.251207
 Spin= Alpha
 Occup= 2.000000
  1     0.0029385526112453
  2     0.0000207873619232
  3    -0.0008254076476785
  4    -0.0005469902448505
  5     0.0004414654734031
  6    -0.0006576364552134
  7     0.0013228322101205
  8    -0.0034273719498322
  9     0.0092121581418777
 10     0.0035223385295938
 11     0.0003119540042265
 12    -0.0002340502580271
 13     0.0007915937298784
 14    -0.0003020919153676
 15    -0.0006240192654220
 16     0.0015053199748838
 17    -0.0025845854104489
 18    -0.0344882856702525
 19     0.0033433801317709
 20     0.0000812586578514
 21    -0.0014837003090004
 22    -0.0001859124600690
 23     0.0009755762412333
 24    -0.0005747831871104
 25    -0.0003041837821558
 26     0.0021369631863127
 27     0.0284413094759428
 28    -0.0094715635287981
 29     0.0048566501380253
 30     0.0042225711866543
 31     0.0020100467257542
 32     0.0040607356849183
 33    -0.0099011917510292
 34     0.0004611087067109
 35    -0.0023017604718638
 36    -0.0048292031114224
 37     0.0033882375109837
 38    -0.0079046926276759
 39    -0.0102111089544748
 40     0.0186686650928754
 41     0.0063340874294475
 42    -0.0083654673292560
 43    -0.0315912170486949
 44     0.0891127213381382
 45    -0.0687470928391799
 46     0.1310532004511870
 47    -0.1492240725681629
 48     0.3233028668687438
 49    -0.1666590056599582
 50     0.3700812079318892
 51    -0.1079682650603640
 52     0.2329562527467215
 53    -0.1076591591264010
 54     0.2318446077555785
 55    -0.1666666580166155
 56     0.3710386514846422
 57    -0.1495857948405502
 58     0.3243210972451864
 59    -0.0687564405603023
 60     0.1308968264580703
 61    -0.0317062216157126
 62     0.0894778823366650
 63     0.0060789882071851
 64    -0.0078328225083726
 65    -0.0101393141862038
 66     0.0187117342584209
 67     0.0032217084263153
 68    -0.0075255645053850
 69     0.0195235610737591
 70     0.0065707582026882
 71    -0.0146079868739648
 72    -0.0217687068774119
 73     0.0207589659049021
 74     0.0151337781879405
 75     0.0070684951710645
 76     0.0078827948836512
 77     0.0116498834887184
 78     0.0005774080845130
 79    -0.0012498352393549
 80    -0.0103440698253008
 81     0.0388637827960054
 82     0.0197550391236903
 83    -0.0274805507685506
 84    -0.0174639989964146
 85     0.0849509389823279
 86    -0.0251819513013015
 87     0.0002420383215078
 88     0.0383313657638626
 89     0.1532895817942431
 90     0.0701142655324354
 91    -0.0004404948873448
 92     0.0554551115881016
 93     0.0168882742792306
 94     0.0094259917304630
 95    -0.0013893530876413
 96     0.0108026419307044
 97     0.0456772165784100
 98    -0.0006481759994896
 99    -0.0053677478913802
 100    -0.0109384064679208
 101     0.1748135497784177
 102     0.0726206899644783
 103    -0.0227191834817296
 104    -0.0597099096301996
 105     0.1213272447622721
 106    -0.0484887148232742
 107     0.0182842030745697
 108    -0.0474946708473095
 109     0.1210723212290191
 110     0.0484837745440510
 111     0.0186883605588671
 112     0.0474043111207185
 113     0.1749425662384445
 114    -0.0725719631028596
 115    -0.0220548315022646
 116     0.0596154462029997
 117     0.0456517532066818
 118     0.0005826216580449
 119    -0.0060746920039835
 120     0.0107403116295877
 121     0.0170356850832939
 122    -0.0098022664752743
 123    -0.0004876482405568
 124    -0.0108974882698759
 125     0.1536453253554917
 126    -0.0699286137744782
 127    -0.0010976685543035
 128    -0.0553194739826754
 129     0.0848863078487803
 130     0.0254851413843587
 131    -0.0004893106200620
 132    -0.0384097752772618
 133     0.0390665660139329
 134    -0.0200499335424872
 135    -0.0268594302338138
 136     0.0176164939835170
 137     0.0119078032473720
 138    -0.0007557318527957
 139    -0.0005963524029584
 140     0.0103403767718331
 141     0.0207745509015977
 142    -0.0148242867459969
 143     0.0064179802240346
 144    -0.0078151667210517
 145     0.0195371256058058
 146    -0.0063937707972836
 147    -0.0142720503170102
 148     0.0217109413912928
 149     0.0093617353292061
 150     0.0048008447335859
 151     0.0041009748651271
 152    -0.0018493221388058
 153     0.0040017314466212
 154    -0.0097970386280314
 155    -0.0004909592875517
 156    -0.0023050691850005
 157     0.0047263959388926
 158    -0.0029359721402622
 159     0.0000145316057464
 160    -0.0007868479604929
 161     0.0005338046761056
 162     0.0004501815919867
 163    -0.0006254088259422
 164    -0.0012558262149960
 165    -0.0032942757001071
 166    -0.0094437467247010
 167    -0.0034981277767488
 168     0.0003111089049506
 169    -0.0002187469510717
 170    -0.0007688910450564
 171    -0.0002947295552668
 172    -0.0005921837809075
 173    -0.0014929560841139
 174    -0.0025690580210689
 175     0.0343242632918467
 176    -0.0033293595037558
 177     0.0000859750255640
 178    -0.0014430890185980
 179     0.0001727392343144
 180     0.0009555916393753
 181    -0.0005461761872115
 182     0.0003197548440187
 183     0.0020711924654073
 184    -0.0280440122006735
 Sym= 121A
 Ene= 0.253993
 Spin= Alpha
 Occup= 2.000000
  1    -0.0021139107342768
  2     0.0001724806299845
  3     0.0004193370239302
  4    -0.0000873112988136
  5     0.0002477126864488
  6    -0.0007085400845348
  7    -0.0003493962462153
  8    -0.0027396473992066
  9    -0.0026934778708601
 10    -0.0008988506365420
 11     0.0000328847461806
 12     0.0007050210205199
 13     0.0003878816697618
 14     0.0000668708141568
 15     0.0012681769351548
 16    -0.0011204581849974
 17     0.0025155695450450
 18     0.0215100848288681
 19    -0.0024194833523593
 20     0.0000088021052022
 21     0.0012737594859531
 22    -0.0000778472998012
 23    -0.0003482902030477
 24    -0.0007719872386528
 25    -0.0003158519243296
 26    -0.0005972273167866
 27    -0.0165646062167719
 28     0.0028041404342596
 29    -0.0012799997173213
 30    -0.0032662757571633
 31    -0.0013867166185706
 32    -0.0018532883338251
 33     0.0010599494482343
 34     0.0004744178017713
 35     0.0045563265438649
 36    -0.0046170589170750
 37     0.0011001224207714
 38     0.0011734733334444
 39    -0.0047270909953314
 40     0.0025296177911056
 41     0.0272563518297661
 42    -0.0744004712428031
 43     0.0331408951409105
 44    -0.0825102195945547
 45     0.1423228028221191
 46    -0.3003348484178688
 47     0.1430923737507371
 48    -0.3062921637934773
 49     0.1305341385069738
 50    -0.2593448000613507
 51     0.1262326701377333
 52    -0.2484837897672813
 53    -0.1252697013336792
 54     0.2461119030936986
 55    -0.1303371665494484
 56     0.2592873903277512
 57    -0.1435161708244606
 58     0.3076213041941580
 59    -0.1417841617694362
 60     0.2990095312828798
 61    -0.0333939496576703
 62     0.0832977712444043
 63    -0.0275935742241568
 64     0.0752799816103602
 65     0.0045824243063680
 66    -0.0025117652744620
 67    -0.0012806782446189
 68    -0.0007256862459289
 69    -0.0089842810163632
 70     0.0013322212709457
 71    -0.0042378235163822
 72     0.0169309098178971
 73    -0.0252466454532217
 74     0.0085047697129096
 75     0.0213115671329977
 76    -0.0069964175454232
 77    -0.0423659944692658
 78     0.0069305747870620
 79    -0.0362082761596565
 80     0.0157382619497097
 81    -0.0478116372055060
 82    -0.0266769746814018
 83    -0.0072982066395005
 84     0.0132438365962310
 85    -0.1374561583487451
 86     0.0636147094203295
 87     0.0209266013226931
 88    -0.0492024166220436
 89    -0.1333621796315239
 90    -0.0455584567069950
 91     0.0349188939442157
 92    -0.0477271078152842
 93    -0.0442334606525250
 94    -0.0206907953592694
 95    -0.0432878197013276
 96    -0.0313132938080679
 97    -0.0020066150522259
 98    -0.0029433373525157
 99     0.0499502067653088
 100     0.0254732452542090
 101    -0.1122441074576581
 102    -0.0368619693810405
 103    -0.0274399979526464
 104     0.0348754836238192
 105    -0.1125716565295928
 106     0.0300707231573917
 107    -0.0471589535742298
 108     0.0389816199235742
 109     0.1116851264006525
 110     0.0299798494601589
 111     0.0471178473104040
 112     0.0388671636921397
 113     0.1120659831832132
 114    -0.0364529030010887
 115     0.0274435744053255
 116     0.0346824150761462
 117     0.0017480920156693
 118    -0.0030596906645816
 119    -0.0498733845968723
 120     0.0254594728949995
 121     0.0442171405176073
 122    -0.0206748357141414
 123     0.0433024605156206
 124    -0.0313041249516405
 125     0.1336805359453296
 126    -0.0456792831001711
 127    -0.0348668836206349
 128    -0.0475776581685974
 129     0.1368301969550161
 130     0.0634030807220099
 131    -0.0210263436210326
 132    -0.0491494852160161
 133     0.0480920607566977
 134    -0.0267192501423776
 135     0.0072228373831406
 136     0.0133633974620117
 137     0.0427254608364550
 138     0.0069490214793121
 139     0.0361276698020154
 140     0.0156313740185032
 141     0.0251745847258387
 142     0.0084470435040973
 143    -0.0213226817261514
 144    -0.0069684583860126
 145     0.0090869769119924
 146     0.0013423146607012
 147     0.0045864251667072
 148     0.0167720227592540
 149     0.0026616039685235
 150     0.0012369506709280
 151     0.0031883634363717
 152    -0.0013136229527390
 153     0.0017903147931795
 154    -0.0007766941063148
 155     0.0004239975190694
 156    -0.0044125373191783
 157    -0.0048111180945509
 158    -0.0020794821565720
 159    -0.0001706958937389
 160    -0.0003891981592214
 161    -0.0001036622157808
 162    -0.0002436307027066
 163     0.0007697270005347
 164    -0.0002724114199056
 165     0.0027957134370165
 166    -0.0027115821218741
 167    -0.0008717887696194
 168    -0.0000440670071491
 169    -0.0007030644489930
 170     0.0004125562651377
 171    -0.0000686192740605
 172    -0.0011585490128646
 173    -0.0011010519056000
 174    -0.0024233020569061
 175     0.0211021526876244
 176    -0.0023725555142207
 177     0.0000034581124713
 178    -0.0012459211938749
 179    -0.0000865082437524
 180     0.0003290396246460
 181     0.0008193086838657
 182    -0.0003241490586202
 183     0.0004516605267563
 184    -0.0161001569424730
 Sym= 122A
 Ene= 0.258592
 Spin= Alpha
 Occup= 2.000000
  1     0.0040686382975096
  2    -0.0016810695490112
  3    -0.0023705877860584
  4    -0.0009997046237351
  5    -0.0015120252712055
  6    -0.0067820952617231
  7     0.0064691780050127
  8     0.0106072452440105
  9    -0.0060504440340493
 10    -0.0034457749411912
 11     0.0009244072713841
 12     0.0006396564466838
 13     0.0021406359634924
 14     0.0019643692494977
 15    -0.0223789617368202
 16     0.0032108997053463
 17    -0.0165398293630267
 18    -0.0294859083982561
 19     0.0050872578825747
 20    -0.0019438101913061
 21    -0.0018076543896621
 22    -0.0006943635684041
 23    -0.0001354932712104
 24    -0.0056869721300693
 25    -0.0031504616002506
 26     0.0240398416124405
 27     0.0296592258289907
 28    -0.0055998700731715
 29    -0.0013455488559277
 30     0.0061991520568881
 31     0.0034017420162877
 32    -0.0010746702387543
 33    -0.0269200604653212
 34    -0.0021176011894629
 35    -0.0372047273391278
 36    -0.0108095395281748
 37     0.0552019861461776
 38    -0.1118113135299824
 39     0.0340828615156228
 40     0.0007876829699245
 41     0.0735946138098111
 42    -0.1614223243478969
 43    -0.0160988383507521
 44     0.0215318492426931
 45    -0.0085162093955925
 46     0.0029560774397322
 47     0.0250609971183433
 48    -0.0541398822003350
 49     0.0379119629934646
 50    -0.0926418717814228
 51    -0.0253280459329131
 52     0.0744369093958118
 53     0.0250443330214733
 54    -0.0736502091773630
 55    -0.0379434295528865
 56     0.0924997444283913
 57    -0.0252020405614049
 58     0.0540082056095670
 59     0.0082308426079306
 60    -0.0026047987740370
 61     0.0158049283252589
 62    -0.0208670864096115
 63    -0.0726891517367550
 64     0.1593869702069245
 65    -0.0338189447610206
 66    -0.0009092070098278
 67    -0.0545342211266273
 68     0.1098169440043109
 69    -0.0403625682280890
 70     0.0137043982530828
 71    -0.0093406054409733
 72     0.0035899242881612
 73    -0.0041157995724255
 74    -0.0468020775421447
 75    -0.1205143710561211
 76     0.0039986279949802
 77    -0.0657953465950767
 78     0.0713756661610631
 79     0.1178513669490460
 80     0.0032694556394725
 81     0.0062563710146863
 82     0.0593804244823739
 83     0.1231139668010683
 84     0.0049801574477441
 85     0.0208157279315196
 86    -0.0585013913241613
 87    -0.1698344770122083
 88     0.0156941631683256
 89    -0.0462705168859330
 90    -0.0665471217277323
 91    -0.1689229843926784
 92    -0.0133551020164842
 93     0.0030181057213175
 94     0.1170453083210156
 95     0.2354375037437821
 96    -0.0063215616983173
 97    -0.0038287074612024
 98     0.0025664075807156
 99    -0.3118874300595614
 100     0.0142508347033098
 101    -0.0419407473793024
 102    -0.0115274825672123
 103     0.2524839714124253
 104     0.0267618095239368
 105     0.0363823857657976
 106    -0.0027447402480687
 107     0.2507209222518388
 108    -0.0158352245351735
 109    -0.0362626410963710
 110    -0.0031237702137345
 111    -0.2505658773417710
 112    -0.0156171965784341
 113     0.0421170791492021
 114    -0.0120631660189909
 115    -0.2522967055953020
 116     0.0270488245495065
 117     0.0042292152852971
 118     0.0033215612404136
 119     0.3118441650776732
 120     0.0140347533235925
 121    -0.0031993855310022
 122     0.1168028941571449
 123    -0.2359426614419756
 124    -0.0062672050699017
 125     0.0466295640798342
 126    -0.0663279175214090
 127     0.1688113956430069
 128    -0.0132422604019473
 129    -0.0205458071316525
 130    -0.0583370225160042
 131     0.1701137670076367
 132     0.0157959612607316
 133    -0.0062429455711624
 134     0.0588886706681584
 135    -0.1229806531570619
 136     0.0049962110264841
 137     0.0650313865298856
 138     0.0708303157748923
 139    -0.1179972574773015
 140     0.0030354006441596
 141     0.0041804685105171
 142    -0.0467333405685612
 143     0.1203803698809126
 144     0.0042017556363894
 145     0.0399930376356609
 146     0.0133316823403338
 147     0.0086889138484501
 148     0.0038496651586266
 149    -0.0054216072740114
 150     0.0014588305967308
 151    -0.0060573999486763
 152     0.0033394286144563
 153     0.0012145886332031
 154     0.0266572698397510
 155    -0.0021766234524167
 156     0.0368209227783466
 157    -0.0105918271786291
 158     0.0040152256413232
 159     0.0016689424655102
 160     0.0023272109231478
 161    -0.0009677926781511
 162     0.0014930880131054
 163     0.0066697610680401
 164     0.0064178011350018
 165    -0.0108068044433778
 166    -0.0058947113542178
 167    -0.0034637932343416
 168    -0.0009305734887766
 169    -0.0005961909402703
 170     0.0020541996792534
 171    -0.0019827630882336
 172     0.0221774711356533
 173     0.0031160323178123
 174     0.0164254138965153
 175    -0.0287970900611955
 176     0.0050137222162336
 177     0.0019324321141404
 178     0.0017705955354852
 179    -0.0006619066912620
 180     0.0001261540064255
 181     0.0055798288659359
 182    -0.0031301444337855
 183    -0.0236842643200419
 184     0.0291142980416663
 Sym= 123A
 Ene= 0.262147
 Spin= Alpha
 Occup= 2.000000
  1     0.0030611217675080
  2     0.0000475889527646
  3    -0.0077059226193790
  4    -0.0040799890602025
  5    -0.0033527251394786
  6    -0.0062287155127610
  7     0.0054082527389072
  8    -0.0283758919723726
  9    -0.0495540019494563
 10     0.0019272314346565
 11     0.0007745741846632
 12     0.0021471707810100
 13     0.0094272931938755
 14    -0.0017997716990845
 15    -0.0122053870624227
 16     0.0102322275714546
 17    -0.0074684308607655
 18    -0.0562545491385534
 19     0.0065780587714375
 20    -0.0011104632540553
 21    -0.0077287904700269
 22    -0.0037101290428736
 23     0.0010738560946608
 24    -0.0022889908279690
 25     0.0068273708558654
 26     0.0352604561139020
 27     0.0821464341750983
 28    -0.0167467261265087
 29     0.0135892702442236
 30     0.0245467156185357
 31     0.0139563280449496
 32     0.0108591000179920
 33    -0.0026012133807489
 34    -0.0037388176909369
 35    -0.0185760336732655
 36    -0.0056692966801032
 37     0.0780412999913996
 38    -0.2048576032627773
 39    -0.0597984336358169
 40     0.1367957490088464
 41     0.1537310041850058
 42    -0.3667800340871106
 43    -0.1100491405577517
 44     0.2791281168996272
 45    -0.0019618905345819
 46    -0.0109326015111985
 47    -0.0144555928882290
 48     0.0444907635170952
 49     0.0286810824719785
 50    -0.0852690029393638
 51    -0.0515491930032937
 52     0.1291656044056127
 53     0.0531136665141364
 54    -0.1325563884041732
 55    -0.0297812290746478
 56     0.0879654007164598
 57     0.0137599255381394
 58    -0.0431717842704579
 59     0.0031058655310372
 60     0.0085478763906540
 61     0.1133615313388571
 62    -0.2867648504646113
 63    -0.1559967680417332
 64     0.3726359500773739
 65     0.0618951091438913
 66    -0.1427017440868472
 67    -0.0786204628013764
 68     0.2073004578893620
 69     0.0139952288057975
 70     0.0534002989621508
 71    -0.0616633647659530
 72    -0.0123599445302063
 73    -0.0086517490808080
 74     0.0501353672499149
 75     0.0636800323605228
 76     0.0059952897514672
 77    -0.1063614223062726
 78     0.0294468489746926
 79    -0.0871952839550979
 80     0.0229095319549403
 81     0.0729685079988226
 82     0.0182379330449936
 83    -0.0786316502111882
 84    -0.0061334202978852
 85    -0.0059421757626519
 86     0.0377907084411298
 87     0.0703669149111435
 88    -0.0051617451814283
 89     0.0172236562508990
 90     0.0381022338409118
 91     0.0699458591205199
 92     0.0036492160080912
 93    -0.0049861050333532
 94    -0.0376317867734322
 95    -0.1224012833717793
 96     0.0062683687649606
 97     0.0050242616423565
 98    -0.0116918991081735
 99     0.1474837594361621
 100    -0.0107278084461017
 101    -0.0186877943156947
 102    -0.0142110845340449
 103    -0.1182206596057662
 104    -0.0065365540608379
 105     0.0297443160309853
 106    -0.0218236775466259
 107    -0.1166565437050229
 108    -0.0017563203775922
 109    -0.0309439246150063
 110    -0.0219764505323241
 111     0.1166155301622027
 112    -0.0021017560170198
 113     0.0194309438234768
 114    -0.0140823492447278
 115     0.1181424616549871
 116    -0.0066191117953854
 117    -0.0052233603731277
 118    -0.0119730642540202
 119    -0.1475358071409398
 120    -0.0105850316879093
 121     0.0049650381897935
 122    -0.0372936151428428
 123     0.1225462300503178
 124     0.0061790271972922
 125    -0.0168871352602704
 126     0.0378786553805684
 127    -0.0694633986230190
 128     0.0036831208668550
 129     0.0049201406518831
 130     0.0373948292856670
 131    -0.0700909176352633
 132    -0.0049975855073415
 133    -0.0755916239410474
 134     0.0195321295458978
 135     0.0782299696632166
 136    -0.0066541118485030
 137     0.1078162144956103
 138     0.0302040677747142
 139     0.0869177704683920
 140     0.0227900661152115
 141     0.0084846352049884
 142     0.0500555628236920
 143    -0.0630847836556074
 144     0.0058442710265254
 145    -0.0147756880293644
 146     0.0541373670812955
 147     0.0613038935865709
 148    -0.0125580682411234
 149    -0.0166042944828163
 150    -0.0136336492605297
 151    -0.0249789748716022
 152     0.0140235933285572
 153    -0.0107820476502462
 154     0.0019429772128159
 155    -0.0038688101353181
 156     0.0184173803556833
 157    -0.0051825217914410
 158     0.0030365961535473
 159    -0.0000550311949499
 160     0.0078653423877567
 161    -0.0041712069250225
 162     0.0034125233716109
 163     0.0061164290599220
 164     0.0053280751427990
 165     0.0289374395164032
 166    -0.0509364188298338
 167     0.0019020125944603
 168    -0.0008269151096213
 169    -0.0022025484503521
 170     0.0096224197091716
 171     0.0017973279058052
 172     0.0120551214788672
 173     0.0105139274230665
 174     0.0074390197491993
 175    -0.0562777098193268
 176     0.0066374490509307
 177     0.0011126718753210
 178     0.0078803978577012
 179    -0.0037729046871980
 180    -0.0010981401206940
 181     0.0020521261677577
 182     0.0071012307085581
 183    -0.0359871407942460
 184     0.0835499086453288
 Sym= 124A
 Ene= 0.263281
 Spin= Alpha
 Occup= 2.000000
  1     0.0051605648225076
  2    -0.0004665615704116
  3    -0.0081853920014952
  4    -0.0047141252497531
  5    -0.0031360679468823
  6    -0.0100855280555603
  7     0.0091604031784585
  8    -0.0262489827109824
  9    -0.0416806340285142
 10     0.0020098511769276
 11     0.0013961424969187
 12     0.0029333902057696
 13     0.0105933964769406
 14    -0.0010918855601107
 15    -0.0216176376369177
 16     0.0106215450499037
 17    -0.0150543885388477
 18    -0.0740638544636301
 19     0.0089459329610429
 20    -0.0019471246305318
 21    -0.0079144592020909
 22    -0.0039128121645749
 23     0.0015541002125523
 24    -0.0055494530607127
 25     0.0044508442508294
 26     0.0446292713885120
 27     0.0960601517290974
 28    -0.0227242507621992
 29     0.0141065079711298
 30     0.0251119032256106
 31     0.0147642475228418
 32     0.0108120449374727
 33    -0.0229986341400168
 34    -0.0045797973310133
 35    -0.0313797364059604
 36    -0.0182625702041649
 37     0.1001064781669714
 38    -0.2493917547971823
 39    -0.0499535168190195
 40     0.1425129903664756
 41     0.1845532645882259
 42    -0.4251067115687600
 43    -0.0994388122661073
 44     0.2385215637639340
 45    -0.0327217206299147
 46     0.0585806264115858
 47     0.0421537753004618
 48    -0.0907429092282991
 49     0.0542191782850244
 50    -0.1201378915648234
 51    -0.0668084895724222
 52     0.1489961371122120
 53    -0.0662622680156238
 54     0.1475522539702991
 55     0.0539769541004048
 56    -0.1194955867821664
 57     0.0425587444304277
 58    -0.0915670810043022
 59    -0.0328943329531735
 60     0.0592294953264539
 61    -0.0988804030805876
 62     0.2365354932205142
 63     0.1813001653613839
 64    -0.4179969318622909
 65    -0.0499404504684399
 66     0.1434221734847497
 67     0.0977338222201027
 68    -0.2439543736335441
 69     0.0029499105521936
 70     0.0560775941504457
 71    -0.0731686949977660
 72    -0.0131725967152101
 73    -0.0121771191284087
 74     0.0319570919774041
 75     0.0293523428082896
 76     0.0077682087185640
 77    -0.1315792840151449
 78     0.0481890291248267
 79    -0.0488886310883492
 80     0.0238640220627669
 81     0.0595501408686342
 82     0.0269010089503329
 83    -0.0361946434445222
 84     0.0001634026194557
 85     0.0195034313743902
 86     0.0132351297236633
 87     0.0171007979296198
 88     0.0021867520008045
 89    -0.0368445339497803
 90     0.0053283325846436
 91     0.0188244434901734
 92    -0.0083892019756159
 93    -0.0054595572880943
 94    -0.0000843298898607
 95    -0.0411721863068340
 96     0.0039941010219184
 97     0.0030277541525925
 98     0.0021334335869970
 99     0.0268795284513321
 100    -0.0034808551015786
 101    -0.0405209672281795
 102    -0.0109401627596883
 103    -0.0045207724237358
 104     0.0066249342189657
 105     0.0471918124616298
 106    -0.0133625921402253
 107    -0.0089602222914377
 108    -0.0043357904832272
 109     0.0471759534795403
 110     0.0130609795797029
 111    -0.0050683595526582
 112     0.0045365685870803
 113    -0.0404354460290521
 114     0.0106866774680040
 115    -0.0006291383627957
 116    -0.0068996391996620
 117     0.0028276599031339
 118    -0.0023483885527453
 119     0.0219558207342677
 120     0.0030977525957913
 121    -0.0051641897317806
 122    -0.0015220980346014
 123    -0.0369677713036979
 124    -0.0037426485663915
 125    -0.0372980719476426
 126    -0.0041070523974840
 127     0.0159025812228098
 128     0.0082801187772088
 129     0.0200346897808729
 130    -0.0118072148702202
 131     0.0142581127423008
 132    -0.0024685265277219
 133     0.0596904027374541
 134    -0.0275101803163382
 135    -0.0332155092815273
 136     0.0001217124135860
 137    -0.1292382291939728
 138    -0.0478513404637812
 139    -0.0456738668440704
 140    -0.0229613273055539
 141    -0.0117288842151839
 142    -0.0302805661019935
 143     0.0266028192245641
 144    -0.0075102048207900
 145     0.0032805824403095
 146    -0.0547802191091812
 147    -0.0704589829240330
 148     0.0128169734461772
 149     0.0219142283307444
 150     0.0136483835307851
 151     0.0246439075128893
 152    -0.0142949278535947
 153     0.0103440536014501
 154    -0.0220215765365309
 155     0.0046030076346009
 156    -0.0305064883452111
 157     0.0173915136477966
 158    -0.0050144510035405
 159    -0.0004593651076919
 160    -0.0080589216080678
 161     0.0046460109815413
 162    -0.0030849123450438
 163    -0.0097095519967337
 164    -0.0088553503230784
 165    -0.0257095802553113
 166     0.0413353599447427
 167    -0.0018954084558096
 168     0.0014212531781482
 169     0.0028931763936233
 170    -0.0104206799072218
 171    -0.0010256092817737
 172    -0.0209818344356655
 173    -0.0105158533471520
 174    -0.0147139184473857
 175     0.0719177349617138
 176    -0.0087535591391703
 177    -0.0019072709738200
 178    -0.0077836536651425
 179     0.0038348721167504
 180     0.0015316058910350
 181    -0.0051933714216549
 182    -0.0045045667736262
 183     0.0439882359139350
 184    -0.0943325467884936
 Sym= 125A
 Ene= 0.273697
 Spin= Alpha
 Occup= 2.000000
  1    -0.0107428162118140
  2     0.0005398422254724
  3    -0.0071364579391114
  4     0.0011732094002684
  5    -0.0104842705652362
  6     0.0128744296532124
  7    -0.0114723642201714
  8    -0.0047581926109439
  9    -0.1406880841765428
 10    -0.0135836473255816
 11    -0.0029640202221056
 12    -0.0026082178516068
 13     0.0004786661284724
 14    -0.0003320366179875
 15     0.0216386618190666
 16     0.0111845365936440
 17     0.0266870437260697
 18     0.0978598425333644
 19    -0.0073500491429128
 20     0.0007620197773134
 21    -0.0066233956385098
 22    -0.0026646891681980
 23    -0.0043651329796487
 24     0.0166794309473351
 25     0.0218300041995016
 26     0.0039899077598158
 27    -0.0240146647528323
 28     0.0456104144329342
 29    -0.0086692077518089
 30     0.0232385941837824
 31     0.0108047396821110
 32    -0.0027403694962911
 33     0.1284632853157103
 34    -0.0126357485563604
 35     0.0031282081270011
 36     0.0920999884622713
 37    -0.0115059431486378
 38    -0.0262376125452698
 39    -0.0277099297936150
 40     0.0567273895642905
 41    -0.1041227416705050
 42     0.2328540257946705
 43    -0.1856998135606543
 44     0.4234945861325675
 45    -0.0409265306927160
 46     0.1131779587440746
 47    -0.0266760952102858
 48     0.1014730969703648
 49     0.0630969238618101
 50    -0.1588560589451796
 51     0.0345012109808216
 52    -0.0999125699598026
 53     0.0388654537864270
 54    -0.1082722033345335
 55     0.0687612793527280
 56    -0.1712876360059253
 57    -0.0250300332119621
 58     0.1009873669717125
 59    -0.0390339300256120
 60     0.1107544614358091
 61    -0.2003037643743980
 62     0.4554459216336165
 63    -0.1157725315058039
 64     0.2586683566807955
 65    -0.0316526491026692
 66     0.0641019422717619
 67    -0.0147273835312225
 68    -0.0228861648426483
 69    -0.0070813057648763
 70     0.0108849380333172
 71     0.0927611386157224
 72     0.0270032551553155
 73     0.0130921621282473
 74    -0.0131054178458997
 75    -0.0325538813842326
 76    -0.0137133240315271
 77     0.0805028106876624
 78    -0.0113078338204436
 79     0.0283354585867606
 80    -0.0221187362730624
 81     0.1377925595718442
 82     0.0504237952479803
 83     0.0221213697118534
 84    -0.0285963967265282
 85     0.0441538240785288
 86    -0.0109473355848477
 87    -0.0097214743727560
 88     0.0027081394954501
 89     0.0344946754223174
 90    -0.0045420772813299
 91    -0.0356733761463580
 92     0.0014354714148684
 93     0.0023099218979162
 94     0.0112331106378053
 95     0.0164112566261697
 96    -0.0119109007437840
 97     0.0004852176488772
 98     0.0017286236804985
 99    -0.0068241414653952
 100    -0.0002242323177909
 101    -0.0477749045015168
 102    -0.0049312863638948
 103    -0.0072242653781088
 104     0.0021799381791779
 105    -0.0264600244920116
 106     0.0050672831834421
 107     0.0086603099641501
 108     0.0001438093646538
 109    -0.0284149974392442
 110    -0.0056791367251410
 111     0.0114629300874107
 112    -0.0007444159803658
 113    -0.0511293979014047
 114     0.0055337116408814
 115    -0.0044021354212711
 116    -0.0032448249696528
 117    -0.0002410562628218
 118    -0.0019041896378659
 119    -0.0106921460479865
 120    -0.0009552131893980
 121     0.0023435018054652
 122    -0.0130091788900571
 123     0.0200618847991618
 124     0.0132822916705866
 125     0.0342964109282499
 126     0.0059333347705251
 127    -0.0397753214665693
 128    -0.0009374040574401
 129     0.0443958819054007
 130     0.0118625782912611
 131    -0.0122819470635830
 132    -0.0024758165820263
 133     0.1483584690366854
 134    -0.0546218125323119
 135     0.0254948335284918
 136     0.0310360355095243
 137     0.0886055364793367
 138     0.0120452772158672
 139     0.0321624331081950
 140     0.0243148851674094
 141     0.0143819601865601
 142     0.0149285062673391
 143    -0.0366768919738335
 144     0.0151956462050790
 145    -0.0076421939004859
 146    -0.0125167952485211
 147     0.1036101649516259
 148    -0.0301590009729309
 149    -0.0505463750108866
 150    -0.0099486541704272
 151     0.0249952137038524
 152    -0.0119449272136515
 153    -0.0037170119367429
 154     0.1407674141950881
 155     0.0133981415180290
 156     0.0053085669558429
 157    -0.1007038532454120
 158     0.0120632582475153
 159     0.0006469969405402
 160    -0.0077050624014062
 161    -0.0012961204999678
 162    -0.0112883863644351
 163     0.0144406028222717
 164     0.0127292387517685
 165    -0.0055684035865440
 166     0.1536190750301872
 167     0.0148009918306218
 168    -0.0032576515879813
 169    -0.0028346600930447
 170    -0.0004881666573775
 171    -0.0002491893329080
 172     0.0248493469955732
 173    -0.0120669866674656
 174     0.0298710332133285
 175    -0.1107021203466806
 176     0.0084259747177578
 177     0.0009164721035697
 178    -0.0071056356129975
 179     0.0028777903733238
 180    -0.0047234457397676
 181     0.0184847477545253
 182    -0.0237748406115581
 183     0.0036735319937710
 184     0.0280625866239077
 Sym= 126A
 Ene= 0.276224
 Spin= Alpha
 Occup= 2.000000
  1     0.0143603306626052
  2    -0.0007750092246863
  3     0.0075714948838292
  4    -0.0019659454456737
  5     0.0119547493276706
  6    -0.0164330644799100
  7     0.0149023312390072
  8     0.0034554123351146
  9     0.1630839485113467
 10     0.0160332514123140
 11     0.0036282650324580
 12     0.0032380091114033
 13     0.0007043610797190
 14    -0.0004114776582789
 15    -0.0316575344357123
 16    -0.0120562514608706
 17    -0.0363337843030467
 18    -0.1360907932238545
 19     0.0108558600875796
 20    -0.0012488081316687
 21     0.0063142405360816
 22     0.0026664000691222
 23     0.0053816056348372
 24    -0.0203216701686503
 25    -0.0252058331335406
 26     0.0016653136337974
 27     0.0452228319644957
 28    -0.0583414859508011
 29     0.0127231778031309
 30    -0.0234684874420882
 31    -0.0104885437069418
 32     0.0056972176663797
 33    -0.1563860682087614
 34     0.0145753962616128
 35    -0.0100257976649919
 36    -0.1095058927925929
 37     0.0301297450193675
 38    -0.0123506091760970
 39     0.0312275797900430
 40    -0.0636340970965748
 41     0.1306870076356917
 42    -0.2811258154432293
 43     0.1974291886127393
 44    -0.4403228991395152
 45    -0.0193467175733494
 46     0.0227258531710310
 47    -0.0099328736100372
 48    -0.0240433702673519
 49    -0.0749615957339388
 50     0.1673942107883721
 51    -0.0456250553262484
 52     0.0843272384183582
 53     0.0429571008542142
 54    -0.0762257427653407
 55     0.0690950692397493
 56    -0.1526974907918883
 57     0.0125339101723171
 58     0.0142877519679665
 59     0.0231981374073019
 60    -0.0329486936412903
 61    -0.1813489626055169
 62     0.4031795043278153
 63    -0.1234086141958420
 64     0.2653070494283831
 65    -0.0305597172657913
 66     0.0614393981160824
 67    -0.0299611615172388
 68     0.0167227889347777
 69     0.0108580920541657
 70    -0.0078194438903673
 71    -0.1197703436977800
 72    -0.0374338079001702
 73    -0.0141055889093005
 74     0.0203182476240712
 75     0.0455159996145215
 76     0.0171142233653352
 77    -0.0885103997253254
 78     0.0086686931582408
 79    -0.0412737821667180
 80     0.0251247023095244
 81    -0.1391338766951403
 82    -0.0534927587265860
 83    -0.0371890559762882
 84     0.0294917638418068
 85    -0.0072259314667458
 86     0.0088019250766045
 87     0.0273416696288796
 88     0.0029955883885567
 89    -0.0075667533580638
 90     0.0147313848830055
 91     0.0487104493099668
 92     0.0061747560920939
 93     0.0002372363017943
 94    -0.0199412404105203
 95    -0.0362455099786355
 96     0.0161762738037350
 97     0.0065564251091338
 98    -0.0009021057109383
 99     0.0363145439673864
 100    -0.0111775745868586
 101     0.0429774805826326
 102     0.0080069746104464
 103    -0.0240394704286562
 104    -0.0106433329034503
 105     0.0191872221812229
 106    -0.0047789103563841
 107    -0.0250399342219082
 108    -0.0063513054118774
 109    -0.0171119883547770
 110    -0.0045089596706833
 111     0.0241548316302893
 112    -0.0064251587385799
 113    -0.0387904355845242
 114     0.0076634287489104
 115     0.0246289672628527
 116    -0.0104850957503306
 117    -0.0069120445718519
 118    -0.0008510579616948
 119    -0.0357374923784830
 120    -0.0113071017079023
 121    -0.0002099761282649
 122    -0.0189469189291951
 123     0.0350658022858246
 124     0.0151150976027910
 125     0.0043679443348202
 126     0.0142534506215390
 127    -0.0456647981688896
 128     0.0061326657333542
 129     0.0033202064745729
 130     0.0080645285713184
 131    -0.0266034391110483
 132     0.0031298377491081
 133     0.1275095775239783
 134    -0.0493220371517123
 135     0.0354397127635098
 136     0.0272488724764483
 137     0.0829477455395051
 138     0.0078398622666382
 139     0.0392415543780592
 140     0.0234922098510962
 141     0.0132823087406079
 142     0.0192736639551359
 143    -0.0430811140411357
 144     0.0160750002474200
 145    -0.0100419109069010
 146    -0.0081137159693826
 147     0.1135010183078016
 148    -0.0354142680442046
 149    -0.0549536965796397
 150    -0.0122777276385317
 151     0.0215570742055245
 152    -0.0100013109607316
 153    -0.0059681331384105
 154     0.1459830839495896
 155     0.0131666382922713
 156     0.0111806265104922
 157    -0.1020044653707247
 158     0.0136857938028506
 159     0.0007838454137183
 160    -0.0069839301721573
 161    -0.0018291342906633
 162    -0.0109737873852120
 163     0.0156463553920330
 164     0.0140290547472992
 165    -0.0037359926374880
 166     0.1519132046684820
 167     0.0148686155472829
 168    -0.0034022719477931
 169    -0.0029908060083636
 170     0.0006531555848721
 171     0.0004888404783594
 172     0.0306657318945088
 173    -0.0110939653649968
 174     0.0345313465565380
 175    -0.1302706300944603
 176     0.0104796927368252
 177     0.0012423494338306
 178    -0.0057791172773112
 179     0.0024656670377080
 180    -0.0049567623301077
 181     0.0191660713679104
 182    -0.0234139590625748
 183    -0.0021174388899414
 184     0.0436218029061769
 Sym= 127A
 Ene= 0.294733
 Spin= Alpha
 Occup= 2.000000
  1    -0.0225943205673267
  2     0.0038583433033142
  3    -0.0052526255251599
  4     0.0000511282964544
  5    -0.0064167993387244
  6     0.0209870234736512
  7    -0.0150244049663981
  8    -0.0361774151250907
  9    -0.1418506128438521
 10    -0.0080069938209407
 11    -0.0034467117527570
 12     0.0015180948573441
 13     0.0036236638655946
 14     0.0058125786076806
 15     0.0758208987728453
 16     0.0035459367128281
 17     0.0629339302314496
 18     0.2262989776276808
 19    -0.0205474870545807
 20     0.0025629142682978
 21    -0.0009364792877768
 22    -0.0033159702453447
 23    -0.0035883384111572
 24     0.0247491840325225
 25     0.0238111942071426
 26    -0.0081835103152100
 27    -0.0874245787252104
 28     0.0684730620724873
 29    -0.0202106469110893
 30     0.0089438619285566
 31     0.0057510081010149
 32    -0.0169858612319934
 33     0.1587187635749378
 34    -0.0069567519277409
 35     0.0649033835017305
 36     0.0941351264717032
 37    -0.0711775146622505
 38     0.1453654751020133
 39    -0.1291217674683273
 40     0.2770630768120457
 41    -0.0276205897768350
 42     0.0268395682891831
 43    -0.0336795634250259
 44     0.0486204887083685
 45     0.0996488161931540
 46    -0.2474230410733793
 47     0.0851834764161304
 48    -0.1994165895425048
 49    -0.0472226583659530
 50     0.1492405931224455
 51    -0.0636248218730390
 52     0.1954415887101433
 53    -0.0517837843004523
 54     0.1604914884259006
 55    -0.0607716458571860
 56     0.1873563131510087
 57     0.1022203376847355
 58    -0.2423338152419230
 59     0.0833091660198388
 60    -0.2061483044534238
 61    -0.0335915298889442
 62     0.0433231659944263
 63    -0.0259966000696900
 64     0.0283013462129908
 65    -0.1476725013445728
 66     0.3174656933128678
 67    -0.0606663242450230
 68     0.1219691523201548
 69    -0.0070863586897369
 70     0.0169770873591834
 71     0.1342991643836667
 72     0.0408973830934909
 73     0.0235126802655285
 74    -0.0118435424843947
 75    -0.0209495572149047
 76    -0.0060661669885608
 77     0.0052884184656192
 78     0.0037496393828153
 79     0.0273429181851563
 80    -0.0070646575208846
 81     0.0183113620210107
 82     0.0167036198064927
 83     0.0338586906774803
 84    -0.0084868352025953
 85    -0.0531645101095641
 86    -0.0159226892401876
 87    -0.0218362288988954
 88     0.0029202754373238
 89    -0.0478644209865972
 90     0.0002729995029844
 91    -0.0158573835854406
 92     0.0019900789175922
 93     0.0252737332666090
 94     0.0062906203448944
 95     0.0160205480639817
 96     0.0147373720691666
 97    -0.0352233067284728
 98     0.0003852226501086
 99    -0.0053922907023547
 100     0.0206492015294683
 101     0.0328919980664405
 102    -0.0102658482280734
 103     0.0182090527938235
 104     0.0030373453181334
 105     0.0420300688317458
 106     0.0104397220106163
 107    -0.0161618871384010
 108     0.0040040789886668
 109     0.0361243805535366
 110    -0.0117605737159395
 111    -0.0132616388783756
 112    -0.0014235353019706
 113     0.0395155292332830
 114     0.0090668936460976
 115     0.0216341915529282
 116    -0.0056045830964340
 117    -0.0353337512868123
 118    -0.0003855129647618
 119    -0.0050253537073086
 120    -0.0205290871757310
 121     0.0254674799810290
 122    -0.0075138409700106
 123     0.0181460622530426
 124    -0.0147014163837426
 125    -0.0553889841083424
 126     0.0001552469340619
 127    -0.0149037805772255
 128    -0.0037593665151432
 129    -0.0462352261540742
 130     0.0162999036316928
 131    -0.0208507189897647
 132    -0.0016431188026318
 133     0.0171317473932236
 134    -0.0166924284176356
 135     0.0350261333166730
 136     0.0100598534667713
 137     0.0061532662828791
 138    -0.0032754026144766
 139     0.0272313933067548
 140     0.0057030251754063
 141     0.0241759167901160
 142     0.0102409330500908
 143    -0.0204396940163882
 144     0.0061898171709825
 145    -0.0069810260414852
 146    -0.0222624978789240
 147     0.1379637319864388
 148    -0.0420595941137358
 149    -0.0705059812446045
 150    -0.0207516486597926
 151     0.0115295268978224
 152    -0.0084092752385449
 153    -0.0178111563119654
 154     0.1632234361431950
 155     0.0079085951178775
 156     0.0672746446336574
 157    -0.0967578038736444
 158     0.0236112443811619
 159     0.0043469037843619
 160    -0.0062270763583162
 161     0.0008204293801260
 162    -0.0068004428822194
 163     0.0211483495925064
 164     0.0138459375071318
 165    -0.0444881687734238
 166     0.1529951977935028
 167     0.0083069480453506
 168    -0.0034392030179155
 169     0.0026255812128533
 170    -0.0058941886910626
 171     0.0061321196235546
 172     0.0783503135172791
 173    -0.0034717614117747
 174     0.0648398625614319
 175    -0.2345247159772710
 176     0.0209887344680044
 177     0.0022464477504123
 178    -0.0017282316344404
 179     0.0042323762642080
 180    -0.0033879965820286
 181     0.0262560456743416
 182    -0.0260966431838494
 183    -0.0008709611848901
 184     0.0831490146469934
 Sym= 128A
 Ene= 0.295718
 Spin= Alpha
 Occup= 2.000000
  1    -0.0090090891665505
  2     0.0034239884342572
  3    -0.0068323812526795
  4    -0.0051654661136029
  5    -0.0041034111781452
  6     0.0028776583236216
  7     0.0053849843093366
  8    -0.0542365278260988
  9    -0.0911326090002861
 10    -0.0037778909013857
 11    -0.0006144153113652
 12     0.0069968944866411
 13     0.0144008619417127
 14     0.0028084773287082
 15     0.0228845059732547
 16    -0.0003041409685057
 17     0.0197624278806729
 18     0.0773806042369874
 19    -0.0051048254922372
 20    -0.0019055847037659
 21    -0.0050226310050691
 22    -0.0062721697798477
 23     0.0001880510839052
 24     0.0123417446524900
 25     0.0180684986920418
 26     0.0451493479484200
 27     0.0129280850464596
 28     0.0224876712401585
 29    -0.0049240259688109
 30     0.0170042292436446
 31     0.0144302809881298
 32    -0.0054879075726558
 33     0.0532968916702846
 34    -0.0094343758047982
 35     0.0174370024057720
 36     0.0318510008001249
 37     0.0669530952381956
 38    -0.1568133474646868
 39    -0.1368099172624861
 40     0.3023212816281243
 41     0.0110187952876703
 42     0.0071640726597208
 43    -0.0178207545077492
 44     0.0041311238476774
 45    -0.1077320275214497
 46     0.2697033110993942
 47     0.1259980283961414
 48    -0.3108094103186937
 49    -0.0913470214968027
 50     0.2630216325334813
 51     0.0815942012981248
 52    -0.2361802395006467
 53    -0.0922344426585722
 54     0.2684922531969305
 55     0.0827603619587176
 56    -0.2356850380611829
 57    -0.1100127097274724
 58     0.2733806191742535
 59     0.1238952614985698
 60    -0.3095258323104806
 61     0.0107390367950726
 62     0.0067783551558197
 63    -0.0161092126792745
 64    -0.0016275627480955
 65     0.1140735486397704
 66    -0.2534522865704947
 67    -0.0782456909642443
 68     0.1791892386120158
 69     0.0011620416270347
 70     0.0281449314169974
 71     0.0391116649849170
 72     0.0134445660956353
 73     0.0056843607015755
 74     0.0092423384748072
 75     0.0018841400663318
 76    -0.0018795451367612
 77     0.0051368481094368
 78    -0.0029743157895530
 79     0.0008561031349310
 80     0.0088210331798945
 81     0.0028547869920096
 82     0.0025767849508122
 83     0.0127202988245039
 84    -0.0127438768069962
 85     0.0443567006306732
 86    -0.0032291990696689
 87     0.0056428181674371
 88    -0.0100642908820125
 89    -0.0544893226238903
 90    -0.0030470954435624
 91     0.0029872888789218
 92     0.0112840811013526
 93     0.0030162789809227
 94     0.0094570855823187
 95     0.0167417628010127
 96     0.0006003845803902
 97    -0.0039461220137918
 98    -0.0003375621246314
 99     0.0008015965277887
 100     0.0020435746388624
 101     0.0453799761939345
 102     0.0071973139886302
 103     0.0263574103625178
 104     0.0192423775640139
 105    -0.0390075871230453
 106     0.0089509848786258
 107     0.0199135628214798
 108    -0.0170704741873007
 109     0.0459215705865965
 110     0.0069578420432284
 111    -0.0225562267037911
 112    -0.0175443839873616
 113    -0.0394927013988782
 114     0.0088775540777852
 115    -0.0229160625393849
 116     0.0184380584511002
 117    -0.0021699943830605
 118    -0.0004055155422123
 119    -0.0017566471382980
 120    -0.0014917621316041
 121     0.0013582830426082
 122     0.0083278733830375
 123    -0.0139849552747822
 124    -0.0019860409503897
 125     0.0459028722839560
 126    -0.0031786632459849
 127    -0.0055876928254720
 128     0.0109594906461342
 129    -0.0527899816692996
 130    -0.0004307066486959
 131    -0.0093895024199783
 132    -0.0105846425662863
 133     0.0008110269100637
 134    -0.0003398166377690
 135    -0.0069819972776529
 136    -0.0111612181780100
 137    -0.0040323928887681
 138    -0.0035125457026510
 139     0.0038484790616345
 140     0.0099441204087734
 141    -0.0015473576707955
 142     0.0111535155436202
 143    -0.0052240050951084
 144    -0.0007732496839203
 145    -0.0027727072573079
 146     0.0252061502209248
 147    -0.0157434814246637
 148     0.0061412927465929
 149     0.0103928401944924
 150     0.0013952201418387
 151    -0.0152546232530890
 152     0.0133547265009043
 153     0.0026454274254119
 154    -0.0252170065703285
 155    -0.0079173244513848
 156    -0.0065030312965277
 157     0.0152465087361610
 158    -0.0050050293994946
 159    -0.0027398432082773
 160     0.0058380354723106
 161    -0.0051847819490881
 162     0.0028825319799324
 163     0.0006454744530947
 164     0.0078769220713724
 165     0.0477731830103622
 166    -0.0653413711592356
 167    -0.0023433135265622
 168    -0.0000685134618860
 169    -0.0067331776139545
 170     0.0137383792885390
 171    -0.0017475158918410
 172    -0.0096677649738474
 173    -0.0009623511055701
 174    -0.0085981883066302
 175     0.0375280324810363
 176    -0.0014917630162015
 177     0.0023355673378018
 178     0.0048070629919378
 179    -0.0056454602807549
 180    -0.0008322545110785
 181    -0.0080776698783697
 182     0.0138214348727143
 183    -0.0464578041511318
 184     0.0281085100595812
 Sym= 129A
 Ene= 0.299882
 Spin= Alpha
 Occup= 2.000000
  1     0.0256035298860266
  2    -0.0053580763080714
  3     0.0030653681853002
  4     0.0007956405338822
  5     0.0028297128910923
  6    -0.0249511377039778
  7     0.0160513585974505
  8     0.0506441577682743
  9     0.1240520876723207
 10     0.0044994142574751
 11     0.0035612233564561
 12    -0.0035152532131033
 13    -0.0056386786240465
 14    -0.0081210002794368
 15    -0.0963946625088788
 16     0.0029320775467959
 17    -0.0732776169389467
 18    -0.2642354079803562
 19     0.0248718551167697
 20    -0.0033066343861044
 21    -0.0016194751199766
 22     0.0034858060979405
 23     0.0030576086741309
 24    -0.0274977230560535
 25    -0.0218164918434834
 26     0.0118980369437941
 27     0.1101293425669740
 28    -0.0734844646893718
 29     0.0250479719762629
 30    -0.0009522398650054
 31    -0.0028930448646144
 32     0.0229186299976233
 33    -0.1593709801810261
 34    -0.0020548163650806
 35    -0.0928165705223299
 36    -0.0915868668065888
 37     0.0904908102231821
 38    -0.2111089974870891
 39     0.1706724079154949
 40    -0.3680655559369460
 41    -0.0248729699387572
 42     0.0744854815588937
 43    -0.0546564082818179
 44     0.1195367017668557
 45    -0.0520729444591087
 46     0.1471410028097443
 47     0.0182972941211190
 48    -0.0327021943983584
 49     0.0231843643492797
 50    -0.0285792021591125
 51     0.0718434787234402
 52    -0.1739018132842637
 53    -0.0706580631514180
 54     0.1712538550437479
 55    -0.0245477273001017
 56     0.0315731127570496
 57    -0.0180266639677479
 58     0.0313027707809342
 59     0.0517919481989588
 60    -0.1455762057134514
 61     0.0564529838054900
 62    -0.1240723630086683
 63     0.0233466523691386
 64    -0.0707724015255682
 65    -0.1710884661454983
 66     0.3682998528354908
 67    -0.0884037356739066
 68     0.2073437335893430
 69     0.0089423526779028
 70    -0.0207608047992404
 71    -0.1452994805066319
 72    -0.0420793607232103
 73    -0.0240261886282580
 74     0.0115469013105030
 75     0.0181145578544300
 76     0.0027793253282739
 77     0.0153924353435230
 78    -0.0064946043519267
 79    -0.0273190350219382
 80     0.0058934836133316
 81     0.0140271949143042
 82    -0.0138641623472230
 83    -0.0406950752322682
 84     0.0027274436286620
 85     0.0275687179973782
 86     0.0147568261257309
 87     0.0218412736609728
 88    -0.0115696000251772
 89     0.0038202461156223
 90     0.0032342581474178
 91     0.0228529226554702
 92    -0.0072363651181558
 93    -0.0171430645100333
 94    -0.0063827682094462
 95    -0.0166874439839978
 96    -0.0092940683053104
 97     0.0080160178045068
 98    -0.0020991435638652
 99     0.0137529034237837
 100    -0.0093452982353338
 101    -0.0073529933541357
 102     0.0026581711884974
 103    -0.0044763038538933
 104     0.0052448390954710
 105    -0.0325479711732662
 106    -0.0026259460719776
 107    -0.0007082119879412
 108    -0.0042766865724061
 109     0.0321735577608620
 110    -0.0026030269337791
 111     0.0006922960597590
 112    -0.0042413953928708
 113     0.0078721453721663
 114     0.0026844592508452
 115     0.0045133175925655
 116     0.0052276065500577
 117    -0.0079842842263125
 118    -0.0021256720782908
 119    -0.0136338725641111
 120    -0.0092445794539080
 121     0.0171306548442332
 122    -0.0064063430327455
 123     0.0166365253625431
 124    -0.0092621405138707
 125    -0.0040025304867178
 126     0.0030917081651444
 127    -0.0224317068230055
 128    -0.0074033574092683
 129    -0.0273842934731303
 130     0.0146459611534740
 131    -0.0217488594218308
 132    -0.0114610619986615
 133    -0.0151945088350220
 134    -0.0136997352147511
 135     0.0401604767471501
 136     0.0027336991155074
 137    -0.0145296740361971
 138    -0.0063015189320577
 139     0.0272070214394974
 140     0.0057737776190664
 141     0.0240213488691459
 142     0.0111399677086624
 143    -0.0179532057253519
 144     0.0027372469508667
 145    -0.0092826240998397
 146    -0.0222827206498562
 147     0.1441506352107928
 148    -0.0416485037232408
 149    -0.0727802584300516
 150    -0.0249825059796431
 151     0.0015727963654047
 152    -0.0038406986289472
 153    -0.0229446291235244
 154     0.1575861392347100
 155    -0.0020788344757551
 156     0.0925397736104378
 157    -0.0905094613098945
 158     0.0254858605464409
 159     0.0054152857930626
 160    -0.0032288199994033
 161     0.0010094428267265
 162    -0.0027897246647324
 163     0.0246965471576844
 164     0.0154932805877943
 165    -0.0520496746022362
 166     0.1243777461784006
 167     0.0044071900908989
 168    -0.0034871869660624
 169     0.0037285840457224
 170    -0.0060916774315237
 171     0.0080642128616281
 172     0.0958910597258451
 173     0.0029524298730426
 174     0.0727047741059746
 175    -0.2625915290136012
 176     0.0246330689971474
 177     0.0031982918469830
 178     0.0014207740359061
 179     0.0036319927523514
 180    -0.0029047098615610
 181     0.0274638093426416
 182    -0.0219768630699129
 183    -0.0100853657769083
 184     0.1073882427804525
 Sym= 130A
 Ene= 0.304214
 Spin= Alpha
 Occup= 2.000000
  1    -0.0138933689600824
  2     0.0057193583017403
  3    -0.0026907108216645
  4    -0.0058393781262048
  5     0.0011239697533733
  6     0.0103985523287577
  7     0.0025438861304856
  8    -0.0722759911941400
  9    -0.0646159361850110
 10    -0.0002217523179956
 11    -0.0010923877568416
 12     0.0094037913516009
 13     0.0164442468080332
 14     0.0059248903336562
 15     0.0533342810761273
 16    -0.0126031424280094
 17     0.0359052118767704
 18     0.1411540317379814
 19    -0.0124044431752974
 20    -0.0008649915253747
 21    -0.0006858924496383
 22    -0.0063508869084767
 23     0.0002113668943515
 24     0.0176068507814927
 25     0.0156293331412806
 26     0.0369031468110492
 27    -0.0334915690104734
 28     0.0339545473319932
 29    -0.0138716911837262
 30     0.0033421435943060
 31     0.0090490877200879
 32    -0.0151543049855762
 33     0.0613716480801812
 34     0.0056850668511895
 35     0.0589645633445908
 36     0.0353239009928160
 37     0.0324725885691706
 38    -0.0453944738952480
 39    -0.1884074839217335
 40     0.4075566823736657
 41     0.0444054069940907
 42    -0.0569678923218417
 43     0.1146730143565112
 44    -0.2352223758967636
 45    -0.1035633299340358
 46     0.2527532024717663
 47    -0.0695002361134876
 48     0.1451053432188874
 49    -0.0042821776910574
 50    -0.0333147070241198
 51     0.0833122739453417
 52    -0.2284191773870148
 53     0.0832174081746756
 54    -0.2279804037029598
 55    -0.0038946675220542
 56    -0.0342480364720155
 57    -0.0700741979498985
 58     0.1463272614554152
 59    -0.1030824838803332
 60     0.2514867896911766
 61     0.1153432121108528
 62    -0.2368109308737923
 63     0.0438451056624777
 64    -0.0559421367688532
 65    -0.1868930848490107
 66     0.4040842165658872
 67     0.0327741833116646
 68    -0.0456075952393133
 69    -0.0028332259287903
 70     0.0264244374317397
 71     0.0675524158740284
 72     0.0202790419322891
 73     0.0040442610602235
 74     0.0067501851140628
 75    -0.0000278310711007
 76    -0.0003032918975434
 77    -0.0078316609464369
 78     0.0011201654017853
 79     0.0034260546175138
 80     0.0061453259027930
 81    -0.0377244595124635
 82     0.0021007092892280
 83     0.0261112299638006
 84    -0.0047862349063351
 85     0.0433616771613132
 86     0.0085565576513347
 87     0.0009782596553556
 88    -0.0023645038690950
 89     0.0261642717847357
 90    -0.0126924619169302
 91    -0.0119096984151620
 92     0.0128249871726433
 93    -0.0177084042986480
 94     0.0065302888398456
 95     0.0108678093286170
 96    -0.0150401581055610
 97     0.0320245096598039
 98     0.0013840866056163
 99    -0.0025582034112121
 100    -0.0166354375395409
 101    -0.0115857132206600
 102     0.0131683276604124
 103    -0.0123814462134946
 104    -0.0065512011698725
 105    -0.0366385927607078
 106    -0.0116341948796619
 107     0.0163748263743641
 108    -0.0059401035139521
 109    -0.0365763056186348
 110     0.0116815224581368
 111     0.0162964280170556
 112     0.0057422883599624
 113    -0.0117205711334245
 114    -0.0131492185586810
 115    -0.0124498507301909
 116     0.0065351034934691
 117     0.0318983553666998
 118    -0.0014017327316326
 119    -0.0025397474876267
 120     0.0163994591370199
 121    -0.0175079659428066
 122    -0.0064371784062757
 123     0.0107078734435884
 124     0.0149346831217292
 125     0.0262582112498313
 126     0.0125598634551451
 127    -0.0117436179070576
 128    -0.0127287837338614
 129     0.0430683561874904
 130    -0.0085559269316616
 131     0.0012288817348661
 132     0.0024607443282648
 133    -0.0381079916353383
 134    -0.0020114908389339
 135     0.0256325059815299
 136     0.0047066771189565
 137    -0.0075717327668801
 138    -0.0010404731105044
 139     0.0032032463543675
 140    -0.0060920406293642
 141     0.0038917075376428
 142    -0.0068587107474515
 143    -0.0000094665858125
 144     0.0002213283008203
 145    -0.0027515535768149
 146    -0.0268360585696562
 147     0.0661939370712142
 148    -0.0197443358630738
 149    -0.0331946351390369
 150    -0.0136418429097574
 151     0.0036019590521524
 152    -0.0094066274970759
 153    -0.0149917883323276
 154     0.0599706906059141
 155    -0.0057202304965664
 156     0.0582138497269273
 157    -0.0345030096178182
 158     0.0136488694131249
 159     0.0056922576082981
 160    -0.0027359054470430
 161     0.0059203388651027
 162     0.0011407631771391
 163     0.0102147513686318
 164    -0.0027555717313102
 165    -0.0722970954953160
 166     0.0638479920413970
 167     0.0001886944164458
 168    -0.0009697081596467
 169     0.0094506441295480
 170    -0.0165506073668873
 171     0.0057998030506357
 172     0.0524920037258622
 173     0.0125368740871597
 174     0.0351542922108685
 175    -0.1385306089270467
 176     0.0121079127348296
 177    -0.0009330005285493
 178    -0.0007635134586555
 179     0.0063587936959717
 180     0.0002748466534024
 181     0.0174710225633217
 182    -0.0156306391407103
 183     0.0377091128705027
 184     0.0317005549128643
 Sym= 131A
 Ene= 0.311460
 Spin= Alpha
 Occup= 2.000000
  1    -0.0117428451294646
  2    -0.0004565971097794
  3     0.0036585798495768
  4     0.0061975315690033
  5     0.0010295772043757
  6     0.0183351834648734
  7    -0.0237245328741782
  8     0.0279124627918219
  9    -0.0143552736890932
 10     0.0013773290497747
 11    -0.0024833448489425
 12    -0.0070475885113901
 13    -0.0146270281254448
 14     0.0035659473361369
 15     0.0588433968958322
 16     0.0073652764976251
 17     0.0419421750936423
 18     0.1342169732243768
 19    -0.0151381692973093
 20     0.0064332727257646
 21     0.0060413796468511
 22     0.0053258126668081
 23    -0.0027190850301536
 24     0.0080207822470979
 25    -0.0032680982423537
 26    -0.0730893705575036
 27    -0.0993380321866378
 28     0.0364724181816130
 29    -0.0140811068419576
 30    -0.0144339576023722
 31    -0.0138290293660334
 32    -0.0115646803899035
 33     0.0850254239985868
 34     0.0099782499202728
 35     0.0593052098057976
 36     0.0449189692926487
 37    -0.1740210764473363
 38     0.3906863600278956
 39     0.0238995848621963
 40    -0.0467553544771307
 41     0.0932216128622768
 42    -0.2209048982642787
 43     0.0239812667716619
 44    -0.0118286312025864
 45     0.0012103488841542
 46    -0.0392032964206300
 47    -0.0976853749058938
 48     0.2491995078707895
 49     0.1147280753994435
 50    -0.2724277784132783
 51    -0.0758331962880986
 52     0.1431299299699731
 53    -0.0762513166952450
 54     0.1445262206584521
 55     0.1155790070981013
 56    -0.2749418504290573
 57    -0.0994265252205685
 58     0.2527124136471667
 59     0.0024001926418811
 60    -0.0415126353633667
 61     0.0264218894258604
 62    -0.0171731335435232
 63     0.0913028790125550
 64    -0.2168996854550421
 65     0.0200230308241722
 66    -0.0387344148918368
 67    -0.1723360929925993
 68     0.3875145921095520
 69    -0.0090870490157551
 70    -0.0030944622555669
 71     0.0706733911734981
 72     0.0209330219895229
 73     0.0070197350976696
 74    -0.0199170847215419
 75    -0.0115976044092769
 76    -0.0004010592884383
 77    -0.0361840250102946
 78     0.0061027422856895
 79     0.0168868355200440
 80    -0.0121882543001683
 81     0.0033519062172205
 82     0.0083003739808243
 83     0.0182430531758745
 84     0.0089004151386634
 85    -0.0030074183071681
 86    -0.0051650416579685
 87    -0.0125846428273972
 88     0.0188500036378410
 89     0.0313863369489599
 90    -0.0159567664887296
 91    -0.0177386052117813
 92    -0.0090814679873652
 93    -0.0065811349242604
 94    -0.0037009392127439
 95     0.0015466332562653
 96    -0.0080157470904443
 97     0.0164678083673438
 98    -0.0016170060557673
 99    -0.0116992546683625
 100    -0.0071802631403085
 101    -0.0352810965960660
 102     0.0105046518231525
 103    -0.0127508418108229
 104    -0.0055344265027951
 105     0.0140211847236366
 106    -0.0039008599132145
 107     0.0062613671185919
 108    -0.0027778763929333
 109     0.0142572952114925
 110     0.0039357120515318
 111     0.0061849371751759
 112     0.0026207029723288
 113    -0.0356508959265109
 114    -0.0106501863264741
 115    -0.0128594315527559
 116     0.0057377044933840
 117     0.0164794636895474
 118     0.0014877736064622
 119    -0.0119464014392769
 120     0.0071396572468170
 121    -0.0065473381727261
 122     0.0036606959831619
 123     0.0015766897673678
 124     0.0080505111934825
 125     0.0317633939623469
 126     0.0160589062105554
 127    -0.0179479424489485
 128     0.0090304262918269
 129    -0.0032207860857628
 130     0.0052502733730115
 131    -0.0128240804410289
 132    -0.0188626088206807
 133     0.0025476090280047
 134    -0.0084761562754497
 135     0.0185402330433255
 136    -0.0088879232660499
 137    -0.0355248771759239
 138    -0.0059365455036157
 139     0.0171850180836036
 140     0.0122011246059058
 141     0.0074063193128578
 142     0.0197122645608719
 143    -0.0114902845592478
 144     0.0005229341166389
 145    -0.0099813549602333
 146     0.0018997824127563
 147     0.0723438573165709
 148    -0.0215197552162803
 149    -0.0373214621899577
 150    -0.0145648892258056
 151    -0.0138795245477352
 152     0.0130513049871222
 153    -0.0119261320173310
 154     0.0863302635794458
 155    -0.0097508206081404
 156     0.0604982531128384
 157    -0.0456712589218979
 158     0.0121512773050287
 159    -0.0002702166248107
 160     0.0034491227261291
 161    -0.0060032596062471
 162     0.0009693792955939
 163     0.0184112503936674
 164     0.0233038556150708
 165     0.0254890107370860
 166     0.0173305600591000
 167    -0.0013718790742524
 168    -0.0025897182713758
 169    -0.0067730930073353
 170     0.0140757996758900
 171     0.0037373414556642
 172     0.0601491749458307
 173    -0.0070940838688519
 174     0.0429127355342888
 175    -0.1379101668135891
 176     0.0154184468720087
 177     0.0063646650673450
 178     0.0058820162921838
 179    -0.0050786089304042
 180    -0.0026461796630183
 181     0.0084533501264071
 182     0.0026876525354094
 183    -0.0715861767576486
 184     0.0991183883656640
 Sym= 132A
 Ene= 0.316906
 Spin= Alpha
 Occup= 2.000000
  1    -0.0026060173369018
  2    -0.0036976621291344
  3     0.0000513722456926
  4     0.0071612717439587
  5    -0.0039196079993663
  6     0.0057002576690305
  7    -0.0172096577609378
  8     0.0559555872911459
  9    -0.0176427465984716
 10    -0.0011182910255827
 11    -0.0012783658341375
 12    -0.0099550519365810
 13    -0.0181650835540257
 14    -0.0007941430102346
 15     0.0115144740465635
 16     0.0210711885690704
 17     0.0134964228490140
 18     0.0255239764548777
 19    -0.0035084398111320
 20     0.0047330717981139
 21     0.0017633435588045
 22     0.0061623688119393
 23    -0.0018080686572545
 24    -0.0022198921520453
 25    -0.0043973274516170
 26    -0.0639211238771300
 27    -0.0341610484058221
 28     0.0119153813830407
 29    -0.0005460708571987
 30    -0.0019157769080053
 31    -0.0095259613278865
 32     0.0020513957851212
 33     0.0462051258574264
 34    -0.0093289701619262
 35     0.0010403121827970
 36     0.0221226620729900
 37    -0.1255192121239836
 38     0.2523018979603720
 39     0.1052386210539666
 40    -0.2213917067635534
 41     0.0415685863114692
 42    -0.1225916672489422
 43    -0.1173613275444261
 44     0.2202726996338381
 45     0.0220262509575477
 46    -0.0824991398346495
 47     0.1360465863221411
 48    -0.3211311914401026
 49    -0.1249492479799674
 50     0.2948276290897781
 51    -0.0748362955600738
 52     0.1392131079087903
 53     0.0757831642940585
 54    -0.1405570953504501
 55     0.1235208323080294
 56    -0.2912241378553888
 57    -0.1346517694288057
 58     0.3175421605808135
 59    -0.0218107176599958
 60     0.0823101425300741
 61     0.1170241961984528
 62    -0.2202546752083584
 63    -0.0429334837078385
 64     0.1258312931525730
 65    -0.1055453182743463
 66     0.2220524781542818
 67     0.1283868824772902
 68    -0.2586486441700938
 69    -0.0028370131404173
 70    -0.0075598099961496
 71     0.0168849975628469
 72     0.0026781059111125
 73     0.0140723589625672
 74    -0.0091246112839131
 75    -0.0063681617762923
 76     0.0009374764069241
 77    -0.0161008767724681
 78    -0.0002527808868446
 79     0.0098452505369723
 80    -0.0047807363275591
 81     0.0266068381792426
 82     0.0027396107107620
 83    -0.0091086728826470
 84    -0.0018361569226428
 85    -0.0209790581197347
 86    -0.0168015058573039
 87    -0.0052444808857115
 88     0.0081454268077926
 89    -0.0402523441989023
 90     0.0239950620771349
 91     0.0083040742918882
 92     0.0039480710174235
 93     0.0314192437027290
 94     0.0001477183850115
 95     0.0059606986247153
 96     0.0216498842146012
 97    -0.0203498135131616
 98    -0.0037014812139301
 99     0.0047305297569780
 100     0.0264234134943690
 101     0.0385961956164030
 102    -0.0165956270971043
 103     0.0175446938268974
 104     0.0142978853859391
 105     0.0195890910472055
 106     0.0102194469586881
 107     0.0003354568428160
 108    -0.0030544148831873
 109    -0.0197479866415447
 110     0.0100506805757286
 111    -0.0004519243233309
 112    -0.0031560214886347
 113    -0.0383144948437752
 114    -0.0164508109830487
 115    -0.0172894149609170
 116     0.0142045441409309
 117     0.0198957057153105
 118    -0.0037962275519498
 119    -0.0045829889466607
 120     0.0260622617570213
 121    -0.0310793081739140
 122     0.0001188056123099
 123    -0.0060757212804495
 124     0.0213611294431263
 125     0.0397278847923681
 126     0.0235854274028042
 127    -0.0080472233296857
 128     0.0038170237267299
 129     0.0209097973370638
 130    -0.0168394653460731
 131     0.0056039060458049
 132     0.0084710474868483
 133    -0.0265509881699075
 134     0.0029081721846807
 135     0.0087385946891732
 136    -0.0016807290153630
 137     0.0165681847158539
 138    -0.0002324669989962
 139    -0.0102957687174394
 140    -0.0049573772335202
 141    -0.0143270195752295
 142    -0.0094439861007682
 143     0.0064907243322101
 144     0.0008309053510091
 145     0.0034607862832068
 146    -0.0072962196029751
 147    -0.0184168084489342
 148     0.0031976381309657
 149     0.0126828993936765
 150     0.0009897405519672
 151     0.0021313059873831
 152    -0.0096606833183817
 153    -0.0017165229495035
 154    -0.0474835854374566
 155    -0.0092128264245465
 156    -0.0025895026266982
 157     0.0227951358902361
 158    -0.0029136773157799
 159     0.0036776669094830
 160    -0.0001043579282634
 161     0.0072808374047517
 162     0.0038665021050385
 163    -0.0060134136767779
 164    -0.0175310425741928
 165    -0.0561391928668120
 166    -0.0182410561794257
 167    -0.0010082066794944
 168     0.0014245416726688
 169     0.0100842290246529
 170    -0.0184176948752993
 171     0.0006623577605277
 172    -0.0129346689283877
 173     0.0212391615029441
 174    -0.0144770119944365
 175     0.0287693959665065
 176    -0.0038742143824244
 177    -0.0048839230229465
 178    -0.0018370575364902
 179     0.0062393609163196
 180     0.0018002751731212
 181     0.0020718060322444
 182    -0.0045382096479995
 183     0.0654802139465691
 184    -0.0358760684856442
 Sym= 133A
 Ene= 0.320997
 Spin= Alpha
 Occup= 2.000000
  1     0.0085639644136685
  2     0.0012814436214245
  3    -0.0025678987664352
  4    -0.0057027558573351
  5    -0.0005862718551333
  6    -0.0140035252591131
  7     0.0208134229065481
  8    -0.0308070763734530
  9     0.0096579361368245
 10    -0.0021798756246938
 11     0.0019191308796338
 12     0.0070148704424056
 13     0.0141450927164112
 14    -0.0025823442526688
 15    -0.0457581745551326
 16    -0.0118666655746724
 17    -0.0318899915942307
 18    -0.0968325915130539
 19     0.0112149970621748
 20    -0.0060432335315160
 21    -0.0045239325194488
 22    -0.0053227616503828
 23     0.0018032399616610
 24    -0.0044436909758514
 25     0.0051281931822151
 26     0.0668980857139431
 27     0.0719800166613698
 28    -0.0257628061416601
 29     0.0099170877631343
 30     0.0105379354515098
 31     0.0119379513474417
 32     0.0080141973323174
 33    -0.0654597276334961
 34    -0.0063041279586883
 35    -0.0459125616214110
 36    -0.0326382920463099
 37     0.1501792983949572
 38    -0.3353977804397307
 39    -0.0340588014344784
 40     0.0662465169229780
 41    -0.1330619857385234
 42     0.2644261443233271
 43     0.0001938789041751
 44    -0.0309113165668748
 45     0.1273729941521304
 46    -0.2926491148707904
 47     0.0427166248861967
 48    -0.1211469469015120
 49    -0.0787286963603478
 50     0.1556048431925277
 51    -0.1110796589346599
 52     0.2618393463134726
 53     0.1090781359272143
 54    -0.2572491099244219
 55     0.0810554988657093
 56    -0.1606679055762482
 57    -0.0446220279873486
 58     0.1255092889017529
 59    -0.1257643491702073
 60     0.2884082068025189
 61     0.0011617996439730
 62     0.0281767473250650
 63     0.1317893671074198
 64    -0.2624135783428294
 65     0.0327971310199777
 66    -0.0636184700777186
 67    -0.1499772878386018
 68     0.3351522634399201
 69     0.0068327889063778
 70    -0.0030470265084106
 71    -0.0461368015812691
 72    -0.0179519172947953
 73     0.0048446670255419
 74     0.0093218587815081
 75     0.0061488034431647
 76     0.0009659357338825
 77     0.0277543108227251
 78    -0.0018104207005887
 79    -0.0061419792051349
 80     0.0023627811936796
 81    -0.0051710540289260
 82    -0.0035975565715123
 83    -0.0110508859746243
 84    -0.0027904837223662
 85    -0.0314306769929409
 86    -0.0193047868150397
 87     0.0002095539610746
 88    -0.0010363985860256
 89    -0.0193899020832747
 90     0.0183876471761771
 91     0.0096176704190007
 92     0.0047976675924775
 93     0.0247111441437491
 94    -0.0013376899040882
 95    -0.0081225114421290
 96     0.0218530973315261
 97    -0.0176922826112770
 98     0.0028123342270868
 99     0.0038930111432150
 100     0.0250780858723867
 101     0.0182709717803663
 102    -0.0114685738754565
 103     0.0009949864666886
 104    -0.0009442559879691
 105     0.0301596921686613
 106     0.0171093182594462
 107    -0.0143726301824401
 108     0.0120950652377341
 109    -0.0298523086158872
 110     0.0169323008651369
 111     0.0143538694403271
 112     0.0120058486519352
 113    -0.0188099071419324
 114    -0.0116461040712937
 115    -0.0011420860378126
 116    -0.0008476757392309
 117     0.0175341913154298
 118     0.0028325772055582
 119    -0.0041564377987968
 120     0.0248317680488827
 121    -0.0244815530447868
 122    -0.0012148038970747
 123     0.0080484850115401
 124     0.0217584585595149
 125     0.0196997120239072
 126     0.0185614728949401
 127    -0.0098499857696461
 128     0.0049998654148744
 129     0.0310099350542681
 130    -0.0189838538796408
 131    -0.0002124041115265
 132    -0.0010782140459500
 133     0.0048859421703289
 134    -0.0037471311518157
 135     0.0111674121105635
 136    -0.0029438120591618
 137    -0.0275498615228166
 138    -0.0016597376279287
 139     0.0063414681887468
 140     0.0025571297156437
 141    -0.0045417184134946
 142     0.0093526790918565
 143    -0.0060240869236460
 144     0.0010844063342940
 145    -0.0076156400775507
 146    -0.0036723226370715
 147     0.0471052211869959
 148    -0.0182656102350097
 149    -0.0262500193375042
 150    -0.0102742467069478
 151    -0.0102363877575404
 152     0.0115050081552305
 153    -0.0082354086177370
 154     0.0661046899422521
 155    -0.0060789030696847
 156     0.0467432393401483
 157    -0.0330046482218165
 158     0.0088116100642651
 159    -0.0011761253043612
 160     0.0024578968151544
 161    -0.0056267506055427
 162     0.0005581160350454
 163     0.0140441704716306
 164     0.0205645795682499
 165     0.0295974510955293
 166     0.0112965134953847
 167    -0.0022260556343707
 168    -0.0020159121898642
 169    -0.0069106014206824
 170     0.0139223646725732
 171     0.0026909216822927
 172     0.0466307394924755
 173    -0.0117628980678407
 174     0.0325147519622430
 175    -0.0990269189372089
 176     0.0113916883103019
 177     0.0060279937052140
 178     0.0044316243271550
 179    -0.0052103604009874
 180    -0.0017356158762403
 181     0.0046701635861324
 182     0.0048473374010696
 183    -0.0664211634079679
 184     0.0718645832657302
 Sym= 134A
 Ene= 0.324908
 Spin= Alpha
 Occup= 2.000000
  1     0.0054240351245489
  2     0.0025958664253400
  3    -0.0001900993529072
  4    -0.0060006221880912
  5     0.0024424388519424
  6    -0.0084270348550788
  7     0.0176299060988345
  8    -0.0412423576314039
  9     0.0211148837729177
 10    -0.0005670429403245
 11     0.0014514869393156
 12     0.0080585380114553
 13     0.0152989809469091
 14    -0.0008387563008246
 15    -0.0263788713323920
 16    -0.0193841601370531
 17    -0.0213933565910911
 18    -0.0557017684680179
 19     0.0064660285741682
 20    -0.0052029757958607
 21    -0.0021914746110331
 22    -0.0053746456816016
 23     0.0013149508381883
 24    -0.0008585474786977
 25     0.0037663436243608
 26     0.0610664828186458
 27     0.0421084788850783
 28    -0.0172108106011492
 29     0.0040813938314432
 30     0.0033633950488096
 31     0.0090677414771866
 32     0.0021407860506968
 33    -0.0541128983855516
 34     0.0056120737600937
 35    -0.0201509016816231
 36    -0.0254477719801393
 37     0.1264144118934169
 38    -0.2689799489172974
 39    -0.0626525356476764
 40     0.1294771277065603
 41    -0.1044830790044241
 42     0.2099219912958311
 43     0.0736898589011673
 44    -0.1404423419981187
 45     0.1087516228591143
 46    -0.2515518668902776
 47    -0.0929259622461476
 48     0.2207359286145324
 49     0.1136193320262529
 50    -0.2461291427266360
 51    -0.1148737889334442
 52     0.2592186496053306
 53    -0.1164113326397989
 54     0.2626033626743036
 55     0.1121171227712751
 56    -0.2429693460933067
 57    -0.0917880264914185
 58     0.2177644877344883
 59     0.1103549295296426
 60    -0.2549668728565175
 61     0.0733172841530806
 62    -0.1401383407747600
 63    -0.1059803881372926
 64     0.2131379881572335
 65    -0.0629464104692609
 66     0.1300558125440280
 67     0.1286932431003791
 68    -0.2740687413621723
 69     0.0038373947023700
 70    -0.0024836745235745
 71    -0.0262885206370410
 72    -0.0092412756039386
 73    -0.0036215285906179
 74     0.0006634641975126
 75     0.0040121319392256
 76    -0.0002380093615737
 77     0.0164924600777581
 78     0.0015067264278688
 79    -0.0029089495077217
 80    -0.0023785376883834
 81    -0.0107176711399030
 82    -0.0009050762604084
 83     0.0041193644675952
 84     0.0051829686372760
 85    -0.0167355855200924
 86    -0.0141777608245634
 87    -0.0033126844685653
 88     0.0043937010463061
 89     0.0155975009289470
 90    -0.0147058007988127
 91    -0.0060619030322040
 92    -0.0082971124312595
 93    -0.0009110772564650
 94    -0.0044905914041949
 95    -0.0087657823374982
 96     0.0024111803955834
 97    -0.0021495976086928
 98    -0.0045607579041358
 99    -0.0123865577989935
 100     0.0011626254392230
 101    -0.0158604362359003
 102     0.0086718918049362
 103    -0.0076107890356158
 104    -0.0024422386595525
 105     0.0174646649252261
 106     0.0113607619798040
 107    -0.0049058381195796
 108     0.0043670688229775
 109     0.0178054669636577
 110    -0.0115985876162475
 111    -0.0050723231311202
 112    -0.0044200221282596
 113    -0.0155790849801706
 114    -0.0084994214336787
 115    -0.0074836977314117
 116     0.0023911045510352
 117    -0.0023537633263541
 118     0.0045152664703914
 119    -0.0123541041711928
 120    -0.0015097922815946
 121    -0.0006097451540396
 122     0.0044682872238277
 123    -0.0089062403437744
 124    -0.0027232637578662
 125     0.0152283956259649
 126     0.0143277650929582
 127    -0.0058624250602859
 128     0.0081246799327288
 129    -0.0170372647310623
 130     0.0144029348793201
 131    -0.0034071185095290
 132    -0.0044933188598462
 133    -0.0106282600861660
 134     0.0010213233175451
 135     0.0039160596306322
 136    -0.0050803381608776
 137     0.0167665617159911
 138    -0.0016090238677786
 139    -0.0030944540944106
 140     0.0022691268147290
 141    -0.0037205647270644
 142    -0.0007870879159632
 143     0.0039978549780405
 144     0.0001013894094250
 145     0.0044961680755885
 146     0.0029226465880611
 147    -0.0273910329057148
 148     0.0096473747721567
 149     0.0177815054197769
 150     0.0044711012095833
 151     0.0033947567570199
 152    -0.0090397064171802
 153     0.0024095824827009
 154    -0.0550664233723923
 155    -0.0056589251462378
 156    -0.0214571992307797
 157     0.0259375752373433
 158    -0.0056797275764069
 159     0.0025656810646049
 160    -0.0001890863795152
 161     0.0060697132749218
 162     0.0024152607551988
 163    -0.0086440449550711
 164    -0.0177970762232752
 165    -0.0411643479436069
 166    -0.0219054529004460
 167     0.0006838225617318
 168     0.0015707787547797
 169     0.0081415856778011
 170    -0.0154525907711788
 171    -0.0009442230673337
 172    -0.0275661693589887
 173     0.0195802816696479
 174    -0.0221780637151616
 175     0.0582183536086499
 176    -0.0067337589300209
 177    -0.0053155846322127
 178    -0.0022024531106819
 179     0.0054170279863873
 180     0.0012717290487702
 181    -0.0010042642369423
 182    -0.0038127962154799
 183     0.0621335323020937
 184    -0.0429922603547195
 Sym= 135A
 Ene= 0.459741
 Spin= Alpha
 Occup= 2.000000
  1    -0.0050794428240574
  2    -0.0178711907509022
  3    -0.0088417229977374
  4     0.0132886346266767
  5    -0.0130354732904161
  6     0.0052037967814627
  7    -0.0322442214992045
  8     0.1272819873034872
  9    -0.0847635187688240
 10     0.0003806269739080
 11    -0.0001568591199724
 12    -0.0001531685219624
 13    -0.0341622988418003
 14    -0.0006791562402978
 15     0.0005323177115661
 16     0.1805327499139812
 17    -0.0020964355535206
 18    -0.0035228716051904
 19     0.0053398233206434
 20     0.0183274073089024
 21    -0.0093312817057986
 22     0.0136961162464130
 23     0.0138868716994111
 24    -0.0055048746313458
 25    -0.0322755350072619
 26    -0.1308932504304318
 27     0.0893018404842939
 28    -0.0000111465785209
 29    -0.0005444370437904
 30     0.0177481071150887
 31     0.0080450715912301
 32     0.0001144623366325
 33    -0.0015211811696412
 34    -0.1041811761370791
 35     0.0043883641476376
 36    -0.0001605934719485
 37    -0.0290549250751397
 38    -0.0197660653272298
 39     0.0245540235265465
 40     0.0162515302804608
 41    -0.0056163055371496
 42     0.0014272703189384
 43    -0.0025344013497017
 44    -0.0252957128061012
 45    -0.0071667059119077
 46    -0.0030462227701177
 47    -0.0052585116952797
 48     0.0032846552237705
 49    -0.0015213322407529
 50    -0.0052669140983561
 51     0.0015955167332723
 52    -0.0039839529102587
 53    -0.0057764526414531
 54     0.0052486644983342
 55    -0.0031775120576018
 56     0.0048078306348595
 57     0.0094026031045920
 58    -0.0128244681761510
 59     0.0156994803724244
 60     0.0076935578710321
 61     0.0024952546932486
 62     0.0711951552447847
 63     0.0124097640635771
 64    -0.0070103534274614
 65    -0.0722818801315846
 66    -0.0495617318882699
 67     0.0867477862454905
 68     0.0579579946744320
 69    -0.0013000951485401
 70    -0.0365548647580641
 71     0.0049090252183622
 72    -0.0069796667763437
 73     0.0050926938943630
 74    -0.0065083526810660
 75     0.0094776692502252
 76    -0.0004120571732892
 77    -0.0067642079687618
 78    -0.0095594759556298
 79     0.0037546549372402
 80     0.0065905103949042
 81     0.0199909084603338
 82     0.0029127940681064
 83    -0.0060391250385489
 84    -0.0016928941612722
 85     0.0016203602455676
 86    -0.0053687688890595
 87     0.0031737476784230
 88    -0.0012305414116227
 89    -0.0112513601411404
 90     0.0058373953631095
 91    -0.0007540325140873
 92     0.0068677146540560
 93     0.0229081915472896
 94     0.0020157364342412
 95    -0.0015876811069469
 96     0.0137202340268076
 97    -0.0173978753063828
 98     0.0019896658418307
 99     0.0020742143448616
 100     0.0168279665834362
 101     0.0123262689381114
 102     0.0011111648343894
 103    -0.0011667182895615
 104     0.0104520052871330
 105     0.0113423029863433
 106     0.0027735534554983
 107    -0.0009489202365645
 108     0.0088326443195765
 109    -0.0130236471173168
 110     0.0078503844165297
 111     0.0009258817351768
 112     0.0072734362427007
 113    -0.0100606702616093
 114    -0.0016418622478478
 115     0.0022088993742566
 116     0.0082863115445303
 117     0.0306445610772643
 118     0.0038699245519091
 119    -0.0036319693850058
 120     0.0254430814650650
 121    -0.0398961482084870
 122     0.0062436904372007
 123     0.0049979237728856
 124     0.0188201060558719
 125     0.0288435253892154
 126     0.0106795856897969
 127    -0.0005198779608725
 128     0.0167286953985105
 129    -0.0101138497181620
 130    -0.0100611281970516
 131    -0.0060242444889514
 132    -0.0072319165352884
 133    -0.0530694044618066
 134     0.0046242405968054
 135     0.0161725356991635
 136    -0.0101495088572870
 137     0.0271694810068246
 138    -0.0256588561584956
 139    -0.0099893852696695
 140     0.0138740217570201
 141    -0.0132391937699256
 142    -0.0201816570970602
 143    -0.0278806313975851
 144    -0.0038558364486712
 145     0.0047814160369368
 146    -0.1088871350419158
 147    -0.0155353856315865
 148    -0.0215101533262724
 149    -0.0003033118458696
 150     0.0017310691960076
 151    -0.0520919663057079
 152     0.0237355890861360
 153    -0.0003121331975035
 154     0.0039120531329076
 155    -0.3054160504983247
 156    -0.0162660516015427
 157    -0.0001287522011977
 158    -0.0148770518103576
 159     0.0527788667256352
 160     0.0257877262959141
 161     0.0391848882512380
 162     0.0380398931636537
 163    -0.0155225012805607
 164    -0.0962432930049345
 165    -0.3753128290660825
 166    -0.2473818658702522
 167     0.0014835037381853
 168     0.0005533501888747
 169     0.0004514285435879
 170    -0.1009150222840069
 171     0.0024238156205832
 172    -0.0021018141142835
 173     0.5331631099393114
 174     0.0071302281323254
 175    -0.0124549489926389
 176     0.0156798421531939
 177    -0.0544367961944397
 178     0.0275073103528630
 179     0.0406420495571113
 180    -0.0409807895807162
 181     0.0164337597835167
 182    -0.0961469250658888
 183     0.3884307443328072
 184     0.2630368117722400
 Sym= 136A
 Ene= 0.459887
 Spin= Alpha
 Occup= 2.000000
  1     0.0148602121426135
  2     0.0531129661465899
  3     0.0258197613573920
  4    -0.0393988843531735
  5     0.0381214592877866
  6    -0.0156806386514276
  7     0.0969869230851010
  8    -0.3773742854433967
  9     0.2476297688841682
 10    -0.0011636780387247
 11     0.0004804665971570
 12     0.0004257281510273
 13     0.1010763468727872
 14     0.0020246977656874
 15    -0.0018561554553432
 16    -0.5341571846935282
 17     0.0062579664560223
 18     0.0103388941238699
 19    -0.0156082745110243
 20    -0.0545121141917737
 21     0.0273083703766372
 22    -0.0406359930207857
 23    -0.0407103194984961
 24     0.0164458071742921
 25     0.0970549960178923
 26     0.3883613504722768
 27    -0.2612639321596153
 28    -0.0000680135244768
 29     0.0016358940743183
 30    -0.0518679025921846
 31    -0.0236002377565739
 32    -0.0003257521740516
 33     0.0043434991210098
 34     0.3046231134694024
 35    -0.0134385557695628
 36     0.0001782417431792
 37     0.0860821790599163
 38     0.0579041115152137
 39    -0.0719449174700725
 40    -0.0492111228205969
 41     0.0114975837402258
 42    -0.0071431924661727
 43     0.0020856202863505
 44     0.0712839141119749
 45     0.0144050803193624
 46     0.0069934840185728
 47     0.0085924319848430
 48    -0.0137013256932197
 49    -0.0058027208394325
 50     0.0020768815590835
 51    -0.0066366882064646
 52     0.0034770634187083
 53    -0.0028610521195072
 54    -0.0012064833941951
 55    -0.0048289855265806
 56    -0.0031134056588664
 57     0.0008411820065878
 58    -0.0058330600983551
 59     0.0030378789862733
 60     0.0018669986558502
 61    -0.0010023229003523
 62     0.0232374793575934
 63     0.0025001506976244
 64    -0.0033999673800306
 65    -0.0245738337464044
 66    -0.0174077335416400
 67     0.0298238538820497
 68     0.0196918287363970
 69     0.0046705820884891
 70     0.1083245815748511
 71    -0.0146990264259002
 72     0.0218997292141944
 73    -0.0123186342684673
 74     0.0196562253699336
 75    -0.0280832285401535
 76     0.0042000913922942
 77     0.0278506787674106
 78     0.0248200914220237
 79    -0.0093883925507440
 80    -0.0125648303259709
 81    -0.0521068478354897
 82    -0.0046478477667565
 83     0.0161925412118578
 84     0.0113543871384304
 85    -0.0107325948392903
 86     0.0088154603683918
 87    -0.0054254294238376
 88     0.0078579829130027
 89     0.0281195506469993
 90    -0.0096205186226580
 91    -0.0008603133725398
 92    -0.0159109605381334
 93    -0.0351109212723179
 94    -0.0064688738899565
 95     0.0051235639707500
 96    -0.0146696452013196
 97     0.0273125987648529
 98    -0.0034252746809718
 99    -0.0031154042202239
 100    -0.0208668516118781
 101    -0.0033310733485780
 102     0.0033687976869427
 103     0.0019722723273783
 104    -0.0025958428362381
 105    -0.0079406853126273
 106    -0.0083328665256636
 107     0.0004545291528046
 108    -0.0025323991709912
 109     0.0047136585395707
 110     0.0029016640725123
 111    -0.0005200663602510
 112    -0.0059486964751278
 113     0.0082887549728726
 114    -0.0029783727320335
 115     0.0002504667409587
 116    -0.0072183310899385
 117     0.0023032518484440
 118     0.0004842679776397
 119    -0.0002016645252796
 120    -0.0012717128229067
 121    -0.0024735157654549
 122     0.0023069055765042
 123     0.0018509742066738
 124    -0.0024915117333063
 125     0.0081247332029866
 126     0.0010310245699247
 127    -0.0012288855831598
 128     0.0041981693940934
 129    -0.0054910313981072
 130    -0.0010154104990530
 131    -0.0007005310258024
 132    -0.0039649188016511
 133    -0.0157947198197719
 134     0.0002253058393918
 135     0.0049817301827153
 136    -0.0056873523897911
 137     0.0120081402859727
 138    -0.0076174793176894
 139    -0.0028354165080311
 140     0.0023656709268127
 141    -0.0035912571243726
 142    -0.0070558372417144
 143    -0.0095819575274186
 144    -0.0023634899113271
 145     0.0019323621450864
 146    -0.0374396699246468
 147    -0.0053921868726771
 148    -0.0078211850894038
 149    -0.0000659674832932
 150     0.0006017079162860
 151    -0.0176696119439338
 152     0.0080814781345926
 153    -0.0001026805730628
 154     0.0012865148827569
 155    -0.1036491052085436
 156    -0.0057228206944506
 157     0.0000563365963301
 158    -0.0050522762597465
 159     0.0182038553152480
 160     0.0087408672463156
 161     0.0134831627969310
 162     0.0129122778115903
 163    -0.0054255646860275
 164    -0.0335846340608866
 165    -0.1291425637815513
 166    -0.0838861516287616
 167     0.0005204262354118
 168     0.0001951951675950
 169     0.0001455242372375
 170    -0.0346514681589039
 171     0.0008350181657925
 172    -0.0008190447763514
 173     0.1830801235095674
 174     0.0024601543568290
 175    -0.0042297502586151
 176     0.0053188869289548
 177    -0.0187886084980943
 178     0.0093428287584486
 179     0.0139931425543861
 180    -0.0139430032669740
 181     0.0056964713695079
 182    -0.0335418895461127
 183     0.1337388339836411
 184     0.0893122256484802
 Sym= 137A
 Ene= 0.476825
 Spin= Alpha
 Occup= 2.000000
  1    -0.0012793126872293
  2     0.0111213188735538
  3    -0.0023474014401479
  4    -0.0063842624444632
  5    -0.0028096550340493
  6    -0.0054504046481088
  7     0.0409687825705641
  8    -0.0615046194131923
  9    -0.0220738185907522
 10    -0.0002906695912621
 11     0.0001822049856104
 12    -0.0002670153083378
 13     0.0121361513903247
 14     0.0002780273062288
 15    -0.0027364068530134
 16    -0.0652886586371651
 17     0.0008810977796221
 18     0.0001650965708443
 19     0.0012979670434403
 20    -0.0115945187757086
 21    -0.0020143347117002
 22    -0.0067382361123602
 23     0.0022523732843574
 24     0.0046447217975991
 25     0.0403828590151436
 26     0.0644153671572353
 27     0.0200863745708657
 28    -0.0014270484158775
 29    -0.0002812259569711
 30     0.0043790712919340
 31     0.0003504144609775
 32    -0.0004929000868301
 33    -0.0016534738350359
 34    -0.0272444838109806
 35    -0.0034778563378046
 36    -0.0030535049702473
 37     0.0084873482024449
 38     0.0029912728223660
 39     0.0017348139956089
 40    -0.0200435133196949
 41    -0.0585643526238375
 42    -0.0360798746127835
 43    -0.0566746978032527
 44    -0.0372634333141046
 45    -0.0740517341023552
 46    -0.0055979665852753
 47    -0.0786261051423973
 48    -0.0080975777991887
 49     0.0286349715836555
 50    -0.0363820692554283
 51     0.0272523678599312
 52    -0.0352760225161013
 53    -0.0176415860144402
 54     0.0376399562299881
 55    -0.0189976857200717
 56     0.0386091381803626
 57     0.0731106791882726
 58     0.0097841051059449
 59     0.0695205759537327
 60     0.0079240088999457
 61     0.0525222880033998
 62     0.0341403035220735
 63     0.0543677272310384
 64     0.0331444754810902
 65    -0.0017957490816467
 66     0.0186124344789622
 67    -0.0077323139298227
 68    -0.0023024028486142
 69     0.0139341804007386
 70     0.0161314478430305
 71    -0.0022472693875492
 72     0.0255449829860429
 73     0.0174595978830781
 74     0.0047861276416809
 75    -0.0035030306971751
 76     0.0380101355287544
 77     0.0991022750159961
 78    -0.0372234073498340
 79     0.0199624186476639
 80     0.0770229972929589
 81     0.0817497701035761
 82     0.0452195573855824
 83    -0.0162965811820764
 84     0.0735773688432729
 85    -0.0753042559265860
 86    -0.0783971475864708
 87     0.0420991629885041
 88     0.0512653537024607
 89    -0.0562096386987857
 90     0.0725165394635323
 91    -0.0331531707015946
 92     0.0521182562549969
 93     0.3415935516816223
 94    -0.0076171703609970
 95     0.0113886548509055
 96     0.2576215795847219
 97    -0.3070701911011200
 98     0.0009646961943183
 99     0.0189101388699596
 100     0.2734102667680894
 101     0.1421700444022324
 102    -0.0411927318838077
 103    -0.0118210742016381
 104     0.1179823852989041
 105     0.1403477323894725
 106     0.0422869077279284
 107    -0.0043341674778220
 108     0.1189117187403813
 109    -0.1425274129891505
 110     0.0338458664065734
 111     0.0047535074752529
 112     0.1208395682708970
 113    -0.1446619584017436
 114    -0.0331414637055421
 115     0.0109916310949397
 116     0.1197113877453608
 117     0.2825194289260207
 118     0.0006001102369128
 119    -0.0178397150595861
 120     0.2561801971550287
 121    -0.3169981608556381
 122    -0.0068784194699950
 123    -0.0103114207592309
 124     0.2407710812438782
 125     0.0518698260511606
 126     0.0676729964408879
 127     0.0304715667896016
 128     0.0495898332597271
 129     0.0689829466147414
 130    -0.0732467546923835
 131    -0.0393324438081240
 132     0.0487034961156147
 133    -0.0759996324063679
 134     0.0419070893698441
 135     0.0150069949682860
 136     0.0689670945444546
 137    -0.0913927024193688
 138    -0.0346873872663519
 139    -0.0186332666755864
 140     0.0720466813681029
 141    -0.0166617297015773
 142     0.0040969447993719
 143     0.0029938583879579
 144     0.0358948330812962
 145    -0.0131680182392146
 146     0.0146158845847295
 147     0.0020187071346352
 148     0.0238401789146886
 149    -0.0014183532753639
 150     0.0003227120191769
 151    -0.0039492462353285
 152     0.0003125648791290
 153     0.0004494091421901
 154     0.0015841672650601
 155    -0.0245998928522661
 156     0.0026301917124292
 157    -0.0027728507572118
 158    -0.0011317427959710
 159    -0.0102043491832646
 160     0.0020863439121123
 161    -0.0058674819743794
 162     0.0024898268578286
 163     0.0049670404314889
 164     0.0374635227434834
 165     0.0565346582606565
 166    -0.0196324728672174
 167    -0.0002134792847210
 168    -0.0001541849935444
 169     0.0002469668082378
 170     0.0111406129844927
 171    -0.0001766192410373
 172     0.0025744650948139
 173    -0.0599700150028148
 174    -0.0005866780355711
 175    -0.0004344807821500
 176     0.0011919378722235
 177     0.0105970098062377
 178     0.0018492482286331
 179    -0.0061583487676971
 180    -0.0020648151164577
 181    -0.0042502845106638
 182     0.0368866957783723
 183    -0.0588597811656324
 184     0.0184043197174105
 Sym= 138A
 Ene= 0.488873
 Spin= Alpha
 Occup= 2.000000
  1     0.0039549230651078
  2    -0.0136027849448477
  3     0.0063034554536075
  4     0.0066919360533837
  5     0.0085757994320292
  6     0.0058937729180522
  7    -0.0603791571065837
  8     0.0648919034979951
  9     0.0613618320411093
 10    -0.0002044117081203
 11    -0.0000422196046859
 12     0.0003539990786218
 13    -0.0092234582110663
 14     0.0000831381776354
 15     0.0015288416112972
 16     0.0517621709028918
 17     0.0004186731522248
 18     0.0006668085168307
 19    -0.0037726294374201
 20     0.0135685929650312
 21     0.0065318508971127
 22     0.0067030121555581
 23    -0.0090020570422517
 24    -0.0057483375134272
 25    -0.0593811356326879
 26    -0.0641803327979849
 27    -0.0631101742196502
 28     0.0018887802139928
 29     0.0016216793480618
 30    -0.0124963410842773
 31    -0.0026701121663682
 32     0.0014958262665937
 33     0.0021380624555211
 34     0.0810072921802769
 35    -0.0025943392681330
 36     0.0024329062010044
 37    -0.0017370803062154
 38    -0.0078626011325776
 39    -0.0072097035361854
 40     0.0239656619970944
 41     0.0507052952958971
 42     0.0343715105314635
 43     0.0508617593703668
 44     0.0459300455908791
 45     0.0621502198226716
 46    -0.0260641240666964
 47     0.0687224624498229
 48    -0.0224829430938729
 49    -0.1281191025619091
 50    -0.0309422957078924
 51    -0.1270632433450277
 52    -0.0335014951947628
 53    -0.1284563607702720
 54    -0.0309339086787182
 55    -0.1282800438352102
 56    -0.0277404745969226
 57     0.0742495713995800
 58    -0.0213792064005996
 59     0.0678039722930118
 60    -0.0251105496023745
 61     0.0544557547686087
 62     0.0486773520515864
 63     0.0542868958386824
 64     0.0364172929688283
 65    -0.0079557726803262
 66     0.0258573335108680
 67    -0.0016692164196662
 68    -0.0079302576536441
 69    -0.0205268367327325
 70    -0.0178482988950090
 71    -0.0007346152251396
 72    -0.0400851736437373
 73     0.0055241232691253
 74    -0.0058943143966765
 75     0.0034155474648719
 76    -0.0431071001249973
 77    -0.1021823769908886
 78     0.0304817035229744
 79    -0.0177798706738677
 80    -0.0741237889158352
 81    -0.0880477733727344
 82    -0.0438095004289482
 83     0.0166518006610704
 84    -0.0699875411659311
 85     0.0815521745875109
 86     0.0627551297472287
 87    -0.0355013024938649
 88    -0.0487543756358551
 89     0.0667744154479973
 90    -0.0591352433739865
 91     0.0287765082000087
 92    -0.0491482005684718
 93    -0.3023518112732206
 94     0.0045506820701119
 95    -0.0092156542210878
 96    -0.2126845322889048
 97     0.3336298412780263
 98    -0.0005141672944716
 99    -0.0120786733715066
 100    -0.2002446845813555
 101     0.0252114327546473
 102     0.1202552802004008
 103     0.0127235642038190
 104     0.0294549221219165
 105     0.0288695108190780
 106    -0.1185869260606111
 107    -0.0048997719251287
 108     0.0336382618796875
 109     0.0179878991003449
 110     0.1220724723121572
 111    -0.0048945612037378
 112    -0.0253049533053159
 113     0.0134507152790323
 114    -0.1228401066727729
 115     0.0137506601218349
 116    -0.0218345477552511
 117     0.3559535325464417
 118     0.0005125928179063
 119    -0.0134308986987648
 120     0.2176397302560257
 121    -0.3244737743025928
 122    -0.0046677923884795
 123    -0.0095595956054163
 124     0.2303462880296586
 125     0.0712083756627196
 126     0.0641728348119870
 127     0.0306436302442418
 128     0.0544087688116120
 129     0.0863436225156143
 130    -0.0678249339652683
 131    -0.0384478721896115
 132     0.0537509098174383
 133    -0.0945860680252681
 134     0.0468898629747722
 135     0.0177294359861009
 136     0.0760973827269933
 137    -0.1089892840427736
 138    -0.0328029590924867
 139    -0.0191923498259589
 140     0.0803086266288231
 141     0.0055765064150309
 142     0.0060289823603330
 143     0.0034089666034794
 144     0.0473191878857825
 145    -0.0224232118155395
 146     0.0188557534002964
 147    -0.0010473216188767
 148     0.0434955199975040
 149    -0.0022251145892104
 150     0.0019053435469132
 151    -0.0133143843493243
 152     0.0028774171411082
 153     0.0016059320595928
 154     0.0021752798463787
 155    -0.0862829494828565
 156    -0.0043518143479134
 157    -0.0025030137642552
 158    -0.0041806503329415
 159    -0.0145992161531180
 160     0.0066364439240956
 161    -0.0072066971865106
 162     0.0090293976347352
 163     0.0062840029324643
 164     0.0644648824170794
 165     0.0698895917966326
 166    -0.0647071488461938
 167     0.0003766372161899
 168    -0.0000042488019015
 169     0.0003807189760484
 170     0.0098725908450069
 171     0.0003012649382683
 172     0.0016367443927419
 173    -0.0554441392565600
 174     0.0009825217534076
 175    -0.0020467641860624
 176     0.0040476683982243
 177     0.0144332342404422
 178     0.0070359964636392
 179    -0.0071111387945166
 180    -0.0096934789606044
 181    -0.0061226227540928
 182     0.0633971320805720
 183    -0.0680702547419752
 184     0.0678676883108125
 Sym= 139A
 Ene= 0.500001
 Spin= Alpha
 Occup= 2.000000
  1    -0.0188238229885503
  2     0.0486077858439190
  3    -0.0318076781565579
  4    -0.0208202475252387
  5    -0.0457449199140445
  6    -0.0182837010541988
  7     0.2445745423081412
  8    -0.2007230081664768
  9    -0.3086706180981616
 10    -0.0004987899302558
 11    -0.0001523815734599
 12    -0.0010366306968213
 13     0.0189547869104639
 14    -0.0000589822543575
 15    -0.0000631571518291
 16    -0.1165335059799591
 17    -0.0020899181004756
 18    -0.0032427225917997
 19     0.0203044462363394
 20    -0.0487904464988049
 21    -0.0321336210287334
 22    -0.0208530396637959
 23     0.0463116851369813
 24     0.0176063219653688
 25     0.2436082082373122
 26     0.2029503500912180
 27     0.3139574848295403
 28     0.0008882044984493
 29     0.0019269513059710
 30     0.0614638782045970
 31     0.0133725466451585
 32     0.0015136757620455
 33    -0.0108133886521044
 34    -0.4119490674653777
 35    -0.0063896813064702
 36    -0.0017627901972706
 37    -0.0214512444303595
 38     0.0704770808564918
 39     0.0157992041686934
 40    -0.0696050789269763
 41    -0.0036302621061721
 42     0.0066254572896881
 43    -0.0405279875137208
 44    -0.0743291349619990
 45     0.0224563358463748
 46     0.0058263260986791
 47    -0.0251587736169505
 48    -0.0085089006931523
 49    -0.0158698291639810
 50    -0.0096940444420585
 51    -0.0010495232910399
 52     0.0060826738510117
 53    -0.0098791991501341
 54    -0.0090376283131796
 55     0.0068892672908905
 56     0.0045740655653738
 57     0.0179467856321886
 58     0.0044432055872238
 59    -0.0161599735178819
 60    -0.0073671388989370
 61     0.0281329504148325
 62     0.0531523285414286
 63     0.0015953483598623
 64    -0.0050947628063509
 65    -0.0118454672284189
 66     0.0512292785719452
 67     0.0156294033243804
 68    -0.0501821163290086
 69    -0.0391387861453076
 70     0.0804220202431615
 71    -0.0010351262451952
 72    -0.0713944160520491
 73     0.0473214910303356
 74     0.0326447245265320
 75    -0.0135749609043685
 76    -0.0510738930529192
 77     0.0030665898563729
 78     0.0151045620168861
 79    -0.0021399474471165
 80    -0.0382100304475176
 81    -0.0018419877517310
 82     0.0608307158386112
 83    -0.0395426083352232
 84    -0.0336209734783140
 85     0.0216102334757990
 86     0.0211839515291627
 87    -0.0119544676588348
 88    -0.0181649153173410
 89     0.0084891245972697
 90     0.0226227375282051
 91    -0.0071680362380274
 92    -0.0206039480587781
 93    -0.0338818948627363
 94     0.0268991087781081
 95    -0.0171083377688952
 96    -0.0564709039418967
 97     0.0498008033664041
 98     0.0154201530259411
 99     0.0013583635703268
 100    -0.0445234837021895
 101    -0.0214072226725434
 102     0.0241619485514631
 103     0.0001440553569056
 104    -0.0155694039756679
 105    -0.0100968509979421
 106     0.0035278086709333
 107    -0.0011049585780450
 108    -0.0208905570632488
 109     0.0154331917321242
 110     0.0110033662631070
 111     0.0005518985933300
 112    -0.0219324221119525
 113     0.0210898057658571
 114     0.0131596022659766
 115     0.0002922660256887
 116    -0.0161722078636093
 117    -0.0259090020072013
 118     0.0131991379181424
 119    -0.0013367178910189
 120    -0.0298872009025985
 121     0.0188600556679005
 122     0.0194541465980831
 123     0.0123785942688457
 124    -0.0360583426064815
 125    -0.0025172535591781
 126     0.0167548058037977
 127     0.0053477629235022
 128    -0.0131503439128407
 129    -0.0122116305683785
 130     0.0155382555445208
 131     0.0084103224245974
 132    -0.0110331954163190
 133    -0.0006409759679117
 134     0.0427208270361439
 135     0.0278383136695875
 136    -0.0210919220200821
 137    -0.0047165877333018
 138     0.0118284931851017
 139     0.0015170021567579
 140    -0.0243098205332851
 141    -0.0283038080833916
 142     0.0234923585257579
 143     0.0099899536400203
 144    -0.0314493489950008
 145     0.0247167540542072
 146     0.0578059424128337
 147    -0.0003047597150880
 148    -0.0446678886614507
 149    -0.0000186388091691
 150    -0.0005337052349382
 151    -0.0446497852558695
 152     0.0097121121212149
 153    -0.0008032923743280
 154     0.0070290223437665
 155    -0.2989547717090085
 156    -0.0013502708761918
 157    -0.0009157402567424
 158    -0.0136255887921461
 159    -0.0356326577528794
 160     0.0228227978659329
 161    -0.0153717970222501
 162     0.0328260761630947
 163     0.0133043579857260
 164     0.1778149362578119
 165     0.1482282994089179
 166    -0.2219774021648835
 167     0.0002160389048567
 168     0.0002631130084905
 169     0.0007668700482949
 170     0.0138703240966799
 171     0.0007743169382882
 172    -0.0002237566924716
 173    -0.0852985415114227
 174     0.0033140312756067
 175    -0.0063157315793572
 176     0.0147696332182457
 177     0.0352680122074207
 178     0.0235818416174379
 179    -0.0149898381103076
 180    -0.0339817609791973
 181    -0.0127576213668670
 182     0.1771874777669238
 183    -0.1458595445660499
 184     0.2298546147783763
 Sym= 140A
 Ene= 0.500312
 Spin= Alpha
 Occup= 2.000000
  1     0.0132169167990786
  2    -0.0340946460029381
  3     0.0224896856119002
  4     0.0145513786287721
  5     0.0323952490143296
  6     0.0128246078315673
  7    -0.1721039416737165
  8     0.1401862805583194
  9     0.2180297325020696
 10     0.0004802445652436
 11     0.0000967769892987
 12     0.0007175658995576
 13    -0.0131245137456469
 14    -0.0000072141479563
 15     0.0001052815478401
 16     0.0809709003591178
 17     0.0013471901706872
 18     0.0023479947180185
 19    -0.0144007003313979
 20     0.0343183937780796
 21     0.0226211638071634
 22     0.0146283567291255
 23    -0.0326172318631787
 24    -0.0122079064145045
 25    -0.1715608682700696
 26    -0.1425088564650041
 27    -0.2212754724219881
 28    -0.0009614895951423
 29    -0.0018800057094397
 30    -0.0433644560474736
 31    -0.0094409777229184
 32    -0.0015154471014812
 33     0.0078660701533850
 34     0.2907763784325172
 35     0.0061010270042546
 36     0.0011747735405567
 37     0.0160255072038773
 38    -0.0500823584003744
 39    -0.0108063713190084
 40     0.0480369349282410
 41     0.0013159824663237
 42    -0.0071666155181755
 43     0.0250250378364861
 44     0.0494311697046424
 45    -0.0191742256832722
 46     0.0053115807907861
 47     0.0137428699041557
 48     0.0104965398201237
 49     0.0279070425110826
 50     0.0141582579266183
 51     0.0359188146726758
 52     0.0102088862819352
 53     0.0346545346161675
 54     0.0073228119990634
 55     0.0310433006437361
 56     0.0156028913766296
 57     0.0189667430519334
 58     0.0119071949930798
 59    -0.0265950651181728
 60     0.0027965052016654
 61     0.0333985843273134
 62     0.0684052925596102
 63     0.0006221200587189
 64    -0.0102797858327102
 65    -0.0157094258010711
 66     0.0684388056001034
 67     0.0225506287185851
 68    -0.0689527414980728
 69     0.0330625239392028
 70    -0.0566193287640817
 71     0.0013127134120064
 72     0.0613048412130179
 73    -0.0411544971575476
 74    -0.0221097695511573
 75     0.0091225646100137
 76     0.0442585561122811
 77     0.0081309187882139
 78    -0.0111590888816018
 79     0.0020993436664497
 80     0.0353403781114022
 81     0.0109617695217346
 82    -0.0406539867070182
 83     0.0274253292650390
 84     0.0319374191509012
 85    -0.0246096313987636
 86    -0.0164425666313449
 87     0.0104394432165554
 88     0.0181946496407286
 89    -0.0166508535073918
 90    -0.0107773379152751
 91     0.0026135174503057
 92     0.0192146080801471
 93     0.0492423472246668
 94    -0.0177594626827274
 95     0.0113045283422081
 96     0.0569674143960827
 97    -0.0736275432110516
 98    -0.0046388757956784
 99     0.0003467419041230
 100     0.0416957863213359
 101    -0.0026299031225688
 102    -0.0329804329094577
 103    -0.0017970735121668
 104    -0.0057555476176169
 105    -0.0184815711475241
 106     0.0262160271866762
 107     0.0014969025399954
 108    -0.0081366077646260
 109    -0.0131496257371883
 110    -0.0244454368828721
 111     0.0017807795910033
 112     0.0008627784149549
 113     0.0055310968437169
 114     0.0388375856148136
 115    -0.0019437896834174
 116     0.0003675312890604
 117    -0.0877861900352774
 118     0.0090134158496511
 119     0.0000809678832762
 120    -0.0544292786775135
 121     0.0599609312510067
 122     0.0246752480045664
 123     0.0156297459379277
 124    -0.0724328110263096
 125    -0.0180422939411574
 126     0.0155908236821764
 127     0.0039640381782015
 128    -0.0243896023843019
 129    -0.0291154905810625
 130     0.0229942496503071
 131     0.0141747266189376
 132    -0.0224200345647167
 133     0.0123514826255433
 134     0.0551343479091505
 135     0.0373030256534906
 136    -0.0400211528185990
 137     0.0074411692160587
 138     0.0167353176293815
 139     0.0028095066471138
 140    -0.0445049192032517
 141    -0.0491462122291680
 142     0.0307160960666941
 143     0.0130256497136183
 144    -0.0540674776280949
 145     0.0411178927110685
 146     0.0786863975553167
 147     0.0003805545331919
 148    -0.0757791486597712
 149     0.0004336739972100
 150    -0.0014314418687853
 151    -0.0609455574018590
 152     0.0132561492440667
 153    -0.0017005396703868
 154     0.0099113499204543
 155    -0.4082339133199512
 156     0.0003066013915575
 157    -0.0011491838887870
 158    -0.0185114239940112
 159    -0.0483718454257986
 160     0.0312157998272194
 161    -0.0207975219319026
 162     0.0449683879454394
 163     0.0180559643832918
 164     0.2421119352772252
 165     0.2004096485188102
 166    -0.3033187604090047
 167     0.0001203621432324
 168     0.0003455893198229
 169     0.0010287526369467
 170     0.0185984250246068
 171     0.0009941699386946
 172    -0.0002293583449808
 173    -0.1147663324152839
 174     0.0043615067216866
 175    -0.0087049942530454
 176     0.0202618755773787
 177     0.0480006920906053
 178     0.0321194945781572
 179    -0.0203470737027998
 180    -0.0463065815567586
 181    -0.0171181169410391
 182     0.2414474601736898
 183    -0.1981823510801851
 184     0.3134176108378625
 Sym= 141A
 Ene= 0.525683
 Spin= Alpha
 Occup= 2.000000
  1     0.0057408198669257
  2    -0.0130388174564346
  3     0.0013303736151129
  4     0.0064865218236546
  5     0.0019033314225555
  6    -0.0022624303897809
  7    -0.0459620532753835
  8     0.0632645420649425
  9     0.0298098800015649
 10    -0.0095641298602375
 11     0.0027271216260711
 12     0.0000577398602267
 13    -0.0004123896322779
 14     0.0098004029622798
 15    -0.0163250546951810
 16     0.0079698919761386
 17     0.0295698214692720
 18     0.0336204847909713
 19    -0.0020987951995627
 20     0.0030605746025624
 21     0.0111065560811088
 22    -0.0010495874322170
 23    -0.0174176987037482
 24    -0.0033134986240857
 25    -0.0448359259085496
 26     0.0099872707313904
 27    -0.0915870754213342
 28     0.0104960368355674
 29     0.0238900766546761
 30    -0.0122386264998422
 31    -0.0038367881422754
 32     0.0163536479708961
 33    -0.0183006790231759
 34     0.0832548368869539
 35    -0.1196595882248447
 36    -0.0157613271856996
 37     0.0121263214999509
 38     0.0017564297652053
 39    -0.0204335178934940
 40     0.0171899501834313
 41    -0.1033957668703532
 42    -0.0417144883394669
 43    -0.1133648533709049
 44    -0.0367128082977705
 45    -0.0632235791024165
 46    -0.0313376557451191
 47    -0.0668240031949094
 48    -0.0339349707396486
 49    -0.0136966589995377
 50    -0.0252903691360054
 51    -0.0071244695501316
 52    -0.0225273173361728
 53     0.0055437335864532
 54     0.0241969814501020
 55     0.0113943115138316
 56     0.0269665837652689
 57     0.0788796124322824
 58     0.0386559921176607
 59     0.0731306875222509
 60     0.0354275438601285
 61     0.1319934381278148
 62     0.0443744766119552
 63     0.1186589853991058
 64     0.0479938799570250
 65     0.0237014465072390
 66    -0.0182253234332019
 67    -0.0143777691970690
 68    -0.0033918651058966
 69    -0.1596036343303315
 70     0.0098979567192747
 71    -0.0462990044157288
 72    -0.3342998973003508
 73     0.2897836622913501
 74     0.0086268154634193
 75    -0.0035636622980999
 76    -0.2452071915287765
 77    -0.0189388911337636
 78    -0.0811958399503500
 79     0.0210544038967538
 80    -0.0870950186063197
 81    -0.0118371739486152
 82     0.0832923994578186
 83    -0.0407754287139693
 84    -0.0779525492357118
 85     0.0850033780552667
 86    -0.0468119943341993
 87     0.0203034297376806
 88    -0.0757817416372446
 89     0.0757207484718513
 90     0.0563397028961874
 91    -0.0288505251250340
 92    -0.0699832494016950
 93     0.0510298699369224
 94     0.0052424185206031
 95    -0.0060034690309908
 96    -0.0314075725147998
 97    -0.0148779453696740
 98     0.0046345939740031
 99     0.0010646538349812
 100    -0.0126169681832622
 101     0.0248432600829167
 102     0.0093779575329009
 103    -0.0012362918740346
 104    -0.0020371575469868
 105     0.0262258734336205
 106    -0.0007085575297806
 107    -0.0002632766741708
 108    -0.0038544673833465
 109    -0.0275374722759816
 110     0.0014569608890955
 111     0.0000224732908232
 112    -0.0052699831352591
 113    -0.0242086846820478
 114     0.0077658824288671
 115     0.0017136103584113
 116    -0.0034934102536947
 117     0.0214253654121924
 118     0.0054382645172808
 119    -0.0014973959809027
 120    -0.0096818577636508
 121    -0.0640407339320293
 122     0.0066038031789084
 123     0.0068911047110710
 124    -0.0322343932455147
 125    -0.0862753742508127
 126     0.0660986590296711
 127     0.0339484913532562
 128    -0.0799708794872087
 129    -0.0958205511486896
 130    -0.0545864110135959
 131    -0.0235337567619145
 132    -0.0854597517724366
 133     0.0123565598925729
 134     0.0981982032395011
 135     0.0478073475963320
 136    -0.0889005345331919
 137     0.0196224253858110
 138    -0.0930625599651616
 139    -0.0243243219474386
 140    -0.0978991227665917
 141    -0.3339746508010182
 142     0.0101084337494285
 143     0.0050925252553694
 144    -0.2814413338731220
 145     0.1830796643779742
 146     0.0125050543651239
 147     0.0542981465968722
 148    -0.3842244306532003
 149     0.0122337841589762
 150    -0.0276176098334634
 151     0.0129499086819852
 152    -0.0045958179673552
 153    -0.0187386162462665
 154     0.0221133047184576
 155     0.0873520201935039
 156     0.1394942110684056
 157    -0.0179994551780334
 158     0.0062384639369209
 159     0.0141682721126281
 160    -0.0008953753873736
 161     0.0071985327239882
 162    -0.0011984071607457
 163     0.0026007136026288
 164    -0.0479292577261900
 165    -0.0701873309210859
 166     0.0280260317221666
 167    -0.0112368420396480
 168    -0.0031792432792069
 169    -0.0000236198598145
 170    -0.0002950451800598
 171    -0.0115164763846466
 172     0.0188583157394616
 173     0.0075449135182556
 174    -0.0343998316656847
 175     0.0399970240107356
 176    -0.0019951547125840
 177    -0.0025353768645122
 178    -0.0122033394047321
 179    -0.0016140952151886
 180     0.0191408698241242
 181     0.0034994835557704
 182    -0.0469175523185221
 183    -0.0154791577989406
 184    -0.0996676996563272
 Sym= 142A
 Ene= 0.526115
 Spin= Alpha
 Occup= 2.000000
  1    -0.0067799768632653
  2     0.0153022701633835
  3    -0.0018312181206853
  4    -0.0075497913134790
  5    -0.0026741029148790
  6     0.0025883498582775
  7     0.0547270072002503
  8    -0.0735222791150215
  9    -0.0373089610427212
 10     0.0110173138295595
 11    -0.0031708563498335
 12    -0.0000601816710743
 13     0.0003172909855886
 14    -0.0113478970155789
 15     0.0190855212587092
 16    -0.0085150418141759
 17    -0.0343120569007516
 18    -0.0390225052956938
 19     0.0026539072393295
 20    -0.0037617267858409
 21    -0.0131234701845940
 22     0.0011826834333516
 23     0.0205849301019047
 24     0.0037886687527503
 25     0.0535532231663510
 26    -0.0110931074492781
 27     0.1087450228733174
 28    -0.0118553036860041
 29    -0.0273458500289904
 30     0.0146670103545831
 31     0.0044873428924206
 32    -0.0186593107953489
 33     0.0210944799801951
 34    -0.1002564020726548
 35     0.1378580269768553
 36     0.0184915966689008
 37    -0.0142481116920323
 38     0.0000449473675907
 39     0.0225444982997858
 40    -0.0198753820998004
 41     0.1281308658751793
 42     0.0534837057900879
 43     0.1355959730128062
 44     0.0452993760869688
 45     0.0820136032335978
 46     0.0346838609095015
 47     0.0834215847434619
 48     0.0353780699274988
 49    -0.0103176868420977
 50     0.0144003316029347
 51    -0.0095356012586370
 52     0.0153508739093861
 53    -0.0108150619985008
 54     0.0119647416278229
 55    -0.0115705795010855
 56     0.0113869629126439
 57     0.0749074269821646
 58     0.0309482540747591
 59     0.0721399848698745
 60     0.0297773665772506
 61     0.1199584291228704
 62     0.0414632028688586
 63     0.1115113912947649
 64     0.0466687355968369
 65     0.0198904214591696
 66    -0.0160033666255563
 67    -0.0128891840143745
 68    -0.0011635265293984
 69     0.1801623723760277
 70    -0.0097530657736808
 71     0.0534018267218275
 72     0.3784048029767717
 73    -0.3311130024811906
 74    -0.0084312293179462
 75     0.0035215352062014
 76     0.2763083298412330
 77     0.0078142628741239
 78     0.0996900702896329
 79    -0.0273218516926485
 80     0.0908628049002752
 81     0.0016770719797208
 82    -0.0987222477743068
 83     0.0475513525407900
 84     0.0815068418872204
 85    -0.0873448861233390
 86     0.0637544205180349
 87    -0.0284395068430916
 88     0.0794945417763818
 89    -0.0806443003651364
 90    -0.0691610411797196
 91     0.0354603189787979
 92     0.0725009260337150
 93    -0.0926326350391534
 94    -0.0028151037145546
 95     0.0040329955730532
 96     0.0130697252163731
 97     0.0424395728498056
 98    -0.0017449534053286
 99    -0.0019430966388877
 100    -0.0172281903943414
 101    -0.0032467032253872
 102     0.0097060219947024
 103     0.0033229846320571
 104     0.0108289992601628
 105    -0.0067547651549209
 106    -0.0111632898693078
 107    -0.0017868194620583
 108     0.0110089066068390
 109    -0.0040196187395529
 110     0.0119727096153366
 111    -0.0017898267301019
 112    -0.0101040231779936
 113    -0.0004105876006006
 114    -0.0103572156003470
 115     0.0031955079203639
 116    -0.0098862857001449
 117     0.0412113838354910
 118     0.0018422149408272
 119    -0.0019829272713439
 120     0.0195135179424517
 121    -0.0856948955414374
 122     0.0031235311930084
 123     0.0036183070291060
 124    -0.0076372486767660
 125    -0.0697201452476704
 126     0.0618145852167917
 127     0.0317095628355463
 128    -0.0625606671644735
 129    -0.0746978949863077
 130    -0.0562338442399214
 131    -0.0249979734933682
 132    -0.0676430349341850
 133     0.0002626814722567
 134     0.0884591297327018
 135     0.0423651948891337
 136    -0.0703126999884887
 137     0.0048933661931953
 138    -0.0866904302452992
 139    -0.0239233263647654
 140    -0.0771555455729618
 141    -0.2897479911168949
 142     0.0076194468745754
 143     0.0039689217593646
 144    -0.2405669202294680
 145     0.1568091037985803
 146     0.0095197818399268
 147     0.0475433544844266
 148    -0.3300250833621979
 149     0.0104912821147144
 150    -0.0240029862286576
 151     0.0118533535857129
 152    -0.0040849801120916
 153    -0.0162257128928384
 154     0.0193612238894455
 155     0.0803851023722768
 156     0.1220548707043430
 157    -0.0160346126446871
 158     0.0056095083422184
 159     0.0126676555343349
 160    -0.0010568527186362
 161     0.0063778511832313
 162    -0.0014877845654000
 163     0.0022467598617833
 164    -0.0435994218918226
 165    -0.0620818250038202
 166     0.0272298669542047
 167    -0.0098320304280767
 168    -0.0028083717177742
 169    -0.0000158224695320
 170    -0.0001326430048253
 171    -0.0101334115956827
 172     0.0167421930580855
 173     0.0060989143893360
 174    -0.0303271837976152
 175     0.0352879410120170
 176    -0.0019617557844856
 177    -0.0024482616542270
 178    -0.0109765749892579
 179    -0.0013796482511322
 180     0.0172189345291706
 181     0.0030352015488660
 182    -0.0428316230311012
 183    -0.0130858193151165
 184    -0.0901554472093223
 Sym= 143A
 Ene= 0.547236
 Spin= Alpha
 Occup= 2.000000
  1    -0.0020829953631755
  2     0.0145951885371559
  3    -0.0013408693084824
  4    -0.0075145733373516
  5    -0.0025466616311140
  6    -0.0011471254344218
  7     0.0482417162017070
  8    -0.0685365905810450
  9    -0.0182749851683728
 10     0.0049635361682367
 11    -0.0024013622259989
 12    -0.0003857626637739
 13     0.0050712897307199
 14    -0.0095861313764832
 15     0.0099211704619488
 16    -0.0418356309098686
 17    -0.0276071125504993
 18    -0.0409396281106376
 19     0.0030287812335149
 20    -0.0079248089764805
 21    -0.0065551617682915
 22    -0.0013972894451262
 23     0.0106333239895690
 24    -0.0058214299284929
 25     0.0547172443069396
 26     0.0188866029468171
 27     0.0573906422036254
 28     0.0001566621039733
 29    -0.0053245951874385
 30     0.0092354550857620
 31     0.0059104312537788
 32     0.0008462980749099
 33     0.0109209029316799
 34    -0.0522919427246883
 35     0.0603251807357986
 36     0.0089434125616382
 37    -0.0918729099162847
 38    -0.0370019472811341
 39     0.0554155967968642
 40     0.0181360798741299
 41    -0.1315847334274605
 42    -0.0603845816339760
 43     0.1374257388759580
 44     0.0568916005071075
 45    -0.1142703930210814
 46    -0.0692540934327118
 47     0.0949230827125894
 48     0.0591538245224549
 49     0.1497662076787011
 50     0.0740593955590189
 51    -0.1581645298503373
 52    -0.0807845486968687
 53     0.1588614289528252
 54     0.0815602692071716
 55    -0.1471524561373098
 56    -0.0719476879070809
 57    -0.0922486373297985
 58    -0.0572015023364319
 59     0.1181686528572872
 60     0.0708759498072670
 61    -0.1402868345444117
 62    -0.0589865363494389
 63     0.1308980075111912
 64     0.0599131693576807
 65    -0.0559104380085542
 66    -0.0189764633704195
 67     0.0928132957606159
 68     0.0375016675840354
 69    -0.0203672275847472
 70    -0.0735840636989002
 71     0.0292966213626110
 72    -0.0409462464221503
 73     0.0377757110250014
 74    -0.1180550045859852
 75     0.0530588240702667
 76    -0.0159630759731889
 77     0.0080537093862290
 78    -0.1359461629498182
 79     0.0587627870639208
 80     0.0237146175613736
 81    -0.0468534252438986
 82    -0.1174047116582012
 83     0.0492267551591965
 84    -0.0300094528686020
 85    -0.0632085181508579
 86    -0.1648676392664752
 87     0.0635424996554011
 88    -0.0195853362189841
 89     0.0924549468219648
 90    -0.1591753404388032
 91     0.0644765923685906
 92     0.0041180131228083
 93    -0.0101781532110303
 94    -0.1810076562825619
 95     0.1082022281500982
 96    -0.0110647905433167
 97     0.0017761089344778
 98    -0.2206798842247208
 99    -0.0304188749386212
 100    -0.0072768717069454
 101     0.0377425914997388
 102    -0.2021629093828547
 103     0.0011374421113559
 104    -0.0341083987002172
 105    -0.0321940100580499
 106    -0.2030043058459893
 107     0.0066024944304386
 108     0.0283316063710447
 109     0.0347276053552700
 110    -0.2047101397087658
 111    -0.0060309298828160
 112     0.0263288679930319
 113    -0.0439005055275635
 114    -0.2032901514214591
 115    -0.0009005563434553
 116    -0.0350849855322863
 117     0.0011596288594299
 118    -0.2245618675344157
 119     0.0313212815659589
 120    -0.0067783109012853
 121     0.0114278476724766
 122    -0.1829946165067677
 123    -0.1095792635557130
 124    -0.0086753218935867
 125    -0.0977571194826193
 126    -0.1597948121873154
 127    -0.0642166538605900
 128     0.0053256266201582
 129     0.0622275963053884
 130    -0.1672192602612619
 131    -0.0643374339874064
 132    -0.0176344296977463
 133     0.0514443585689936
 134    -0.1177828913221169
 135    -0.0494587229001396
 136    -0.0292454032841915
 137    -0.0056953416110509
 138    -0.1380693489124865
 139    -0.0597799792999058
 140     0.0270810611068065
 141    -0.0435045838533587
 142    -0.1193311095764718
 143    -0.0532275044719503
 144    -0.0146932658600833
 145     0.0216782041444831
 146    -0.0747315651427895
 147    -0.0306414366103772
 148    -0.0427390093193928
 149     0.0001509534318668
 150     0.0054477916001517
 151    -0.0090424920655585
 152     0.0059832260010481
 153    -0.0008679733425843
 154    -0.0117970238346398
 155    -0.0499464706810635
 156    -0.0624916295287206
 157     0.0091403881417897
 158    -0.0019759930105208
 159    -0.0146630189096824
 160     0.0011121458876104
 161    -0.0076411294761724
 162     0.0021791349542445
 163     0.0013403515473571
 164     0.0473806992280757
 165     0.0696020882226036
 166    -0.0161356699534981
 167     0.0051829313889774
 168     0.0024930038178730
 169     0.0004181960792429
 170     0.0052200820297752
 171     0.0099512366747411
 172    -0.0102853652527379
 173    -0.0427206499005011
 174     0.0285086378052665
 175    -0.0425226206664973
 176     0.0029268060911835
 177     0.0077491553515895
 178     0.0064675580099442
 179    -0.0012958952182305
 180    -0.0104846925212525
 181     0.0060473201474981
 182     0.0542256818539596
 183    -0.0180320147703087
 184     0.0563136510298827
 Sym= 144A
 Ene= 0.560094
 Spin= Alpha
 Occup= 2.000000
  1    -0.0016868725852014
  2     0.0191263259402111
  3     0.0010980400827849
  4    -0.0108540603616982
  5     0.0011463363995587
  6    -0.0034477977117135
  7     0.0495556427518356
  8    -0.0966099543494889
  9     0.0024383194370222
 10     0.0091258679168491
 11    -0.0042750491116205
 12    -0.0008836454661951
 13     0.0069291409478069
 14    -0.0170643600541137
 15     0.0182947414381797
 16    -0.0587473018404863
 17    -0.0481150499844038
 18    -0.0702430740895744
 19     0.0022786527337144
 20    -0.0071665245797412
 21    -0.0071738911041289
 22     0.0003043806970581
 23     0.0120679628855982
 24    -0.0123033701292299
 25     0.0634944764009961
 26     0.0070852223845573
 27     0.0592418139580915
 28     0.0006068906750519
 29    -0.0103530931144031
 30     0.0083494419758536
 31     0.0075476194353409
 32     0.0006794221632293
 33     0.0270986714819811
 34    -0.0392843669825768
 35     0.1071491442730668
 36     0.0134056706893145
 37    -0.1419095058310459
 38    -0.0534946905420528
 39     0.0818111484537198
 40     0.0275781391951353
 41    -0.1282410788641925
 42    -0.0636665060617676
 43     0.1698815304183836
 44     0.0783381661544604
 45    -0.1633425511570692
 46    -0.0522315116719923
 47     0.1018942123607974
 48     0.0246635558205298
 49    -0.0440995509726152
 50    -0.0102521812499904
 51     0.0392166275118978
 52    -0.0000797926529279
 53     0.0434904579382366
 54     0.0009848305681547
 55    -0.0446320226934006
 56    -0.0116249870143388
 57     0.0947112485078276
 58     0.0213873275247083
 59    -0.1671660580584195
 60    -0.0535947686461447
 61     0.1715375742459288
 62     0.0800349669831670
 63    -0.1209482734894859
 64    -0.0600313833025017
 65     0.0815289730857560
 66     0.0282791499995816
 67    -0.1421424019263981
 68    -0.0531473033048038
 69    -0.0257219438608985
 70    -0.1210406770395946
 71     0.0533576485670119
 72    -0.0486151800901761
 73     0.0685434591063493
 74    -0.1537421720147714
 75     0.0712627751914101
 76    -0.0007407001580111
 77    -0.0319998623368305
 78    -0.1749032449967992
 79     0.0731732161162340
 80     0.0435776091977600
 81    -0.0612472454464145
 82    -0.1483805521014843
 83     0.0618420406477775
 84    -0.0187639822572366
 85    -0.0246057267571892
 86    -0.1669967477452227
 87     0.0717774697547418
 88    -0.0082470518884133
 89     0.0960473613668255
 90    -0.1536198274302017
 91     0.0679126409404770
 92     0.0145306011624177
 93    -0.0204585272727432
 94    -0.1893510816676269
 95     0.1023521041130053
 96     0.0065666694567490
 97    -0.0003599105569801
 98    -0.1356059090994717
 99    -0.0259170723264964
 100     0.0032759869255749
 101     0.1703399776225902
 102    -0.0565456045876904
 103     0.0037791197307125
 104     0.0235021056591938
 105    -0.1690174960228480
 106    -0.0622714247601862
 107     0.0078194206458749
 108    -0.0256440968441435
 109    -0.1704581511187372
 110     0.0595208243876073
 111     0.0076106203200164
 112     0.0244639099651004
 113     0.1682378432395434
 114     0.0532525490215948
 115     0.0036523702974850
 116    -0.0251724374910361
 117     0.0010049582606894
 118     0.1326312133875531
 119    -0.0256896012654002
 120    -0.0049083143035298
 121    -0.0254119484145947
 122     0.1853905276005522
 123     0.1002737454888702
 124    -0.0105406896470571
 125     0.1008541036685936
 126     0.1503473432433139
 127     0.0660524086581383
 128    -0.0169375716265913
 129    -0.0165568669478947
 130     0.1644078220187687
 131     0.0708431613464528
 132     0.0047845015323035
 133    -0.0668749615235298
 134     0.1457682037395721
 135     0.0609921491178002
 136     0.0153695182189226
 137    -0.0402154471383909
 138     0.1740541475108939
 139     0.0728590863721800
 140    -0.0475452996042807
 141     0.0775227891609799
 142     0.1531496399203102
 143     0.0705552269408488
 144    -0.0022182958744392
 145    -0.0273397659316188
 146     0.1213381724495204
 147     0.0553373553026014
 148     0.0504582339140431
 149    -0.0006248977626203
 150    -0.0105346612913864
 151     0.0079803239162044
 152    -0.0075959123579090
 153     0.0006480302020906
 154     0.0284116080273719
 155     0.0354061359577407
 156     0.1100111134447588
 157    -0.0136728033973163
 158     0.0015270206139937
 159     0.0190702421489125
 160     0.0014430971521260
 161     0.0109725773267987
 162     0.0017246325212963
 163    -0.0037983943164776
 164    -0.0476676526185255
 165    -0.0975136589543273
 166    -0.0056816115497120
 167    -0.0094211091671260
 168    -0.0044001264857544
 169    -0.0009352013866740
 170    -0.0070773887852686
 171    -0.0175255664509967
 172     0.0188843586720376
 173     0.0594692164294486
 174    -0.0492704652256313
 175     0.0721047493804414
 176    -0.0020875232282877
 177    -0.0067805462868473
 178    -0.0069959066150990
 179    -0.0004946036349252
 180     0.0117644146340683
 181    -0.0125519987555530
 182    -0.0621376659416032
 183     0.0054218922648997
 184    -0.0571996264474947
 Sym= 145A
 Ene= 0.573953
 Spin= Alpha
 Occup= 2.000000
  1     0.0002422917638081
  2    -0.0152413021829844
  3    -0.0044269131003335
  4     0.0104435425806218
  5    -0.0067970230816375
  6     0.0082066587945198
  7    -0.0187260896901641
  8     0.0889380397715034
  9    -0.0337881179228447
 10    -0.0118735899612558
 11     0.0053203617058835
 12     0.0011756474889787
 13    -0.0054588730764636
 14     0.0212913195095327
 15    -0.0238474745920484
 16     0.0463531242198952
 17     0.0589097562111415
 18     0.0861695353721262
 19     0.0000091036831418
 20     0.0002240644291932
 21     0.0048177767387901
 22    -0.0038237040320904
 23    -0.0083384192766410
 24     0.0150046585174808
 25    -0.0389373698767825
 26     0.0238317295052616
 27    -0.0351841344262198
 28    -0.0012269740513952
 29     0.0136032910107128
 30    -0.0022919686753955
 31    -0.0044427305364953
 32     0.0000598783498249
 33    -0.0432734974183182
 34     0.0006202624060015
 35    -0.1336681477903169
 36    -0.0145039073750894
 37     0.1211937882152159
 38     0.0282407297831435
 39    -0.0520207056481291
 40    -0.0178230404546160
 41    -0.0955132363436664
 42    -0.0422749726220816
 43    -0.1024780070865620
 44    -0.0517122726981622
 45     0.1649398440722320
 46     0.0591913432991702
 47     0.0769341214411865
 48     0.0404818933244154
 49     0.0376799693670471
 50     0.0280389242479942
 51    -0.1115846916645495
 52    -0.0199299021810178
 53     0.1081828182055333
 54     0.0092446685161321
 55    -0.0151442786771332
 56    -0.0173355844918920
 57    -0.1090843995099541
 58    -0.0481887267378905
 59    -0.2056413305299848
 60    -0.0821784905695134
 61     0.1122814013437494
 62     0.0570389315539698
 63     0.1401251689063504
 64     0.0635583435861413
 65     0.0671765220237672
 66     0.0224293545153624
 67    -0.1529359520510163
 68    -0.0340070987887766
 69     0.0267768169266488
 70     0.0975889218559079
 71    -0.0663625466665864
 72     0.0467038104913489
 73    -0.1682460059150611
 74     0.0851418043727493
 75    -0.0421003932322059
 76    -0.0591685221112448
 77     0.2237155458180847
 78     0.0652155914863386
 79    -0.0255954238151778
 80    -0.0616562220729559
 81     0.0681130288326552
 82     0.0349910779150154
 83    -0.0204056988641692
 84    -0.0753702970740854
 85    -0.2145701544716859
 86     0.0092445204406159
 87    -0.0152694529763388
 88    -0.0471495629277172
 89    -0.0742443003366689
 90    -0.0019357964481373
 91    -0.0018861473830406
 92    -0.0768895594062289
 93     0.1125466299490272
 94    -0.0205637161362808
 95     0.0122197214737379
 96    -0.0878285553508831
 97    -0.0280271505562283
 98    -0.0693856147792684
 99    -0.0061522424078458
 100    -0.0380836647405045
 101     0.0117411372285446
 102    -0.0845000260218883
 103    -0.0015960141530090
 104    -0.0521952185282943
 105     0.0482427102956689
 106    -0.0666566191997984
 107    -0.0019004475851362
 108    -0.0200911685538181
 109    -0.0066525734635391
 110    -0.0771205300367374
 111     0.0010240251585212
 112    -0.0364461535401334
 113    -0.0787969590921009
 114    -0.0979602570635767
 115     0.0007815669929108
 116    -0.0478790639776595
 117     0.0323078655868630
 118    -0.1104095311298291
 119     0.0123342090533192
 120    -0.0524637344070171
 121    -0.1413643893657962
 122    -0.0564310124298182
 123    -0.0318594132036623
 124    -0.1159778505646056
 125     0.0706981336174773
 126    -0.0209064756790504
 127    -0.0054218714896042
 128    -0.1037593606139697
 129     0.2985419689661753
 130    -0.0034324506296623
 131     0.0134355570860767
 132    -0.0620088523838812
 133    -0.0667748591319617
 134     0.0308344610393308
 135     0.0206952477007608
 136    -0.1069419352951864
 137    -0.3041945894228292
 138     0.0720426945064621
 139     0.0274226459636666
 140    -0.0741749885616751
 141     0.2154555300672307
 142     0.1053535252972557
 143     0.0521523740238493
 144    -0.0800743708136602
 145    -0.0319347322761365
 146     0.1244930737612920
 147     0.0837374394483686
 148     0.0557859398736191
 149    -0.0015545648930197
 150    -0.0169516096943880
 151     0.0018336305121718
 152    -0.0054983374983098
 153    -0.0000992932465787
 154     0.0556336801723204
 155    -0.0081503763934755
 156     0.1667342236486784
 157    -0.0172133766233271
 158     0.0000073391819482
 159     0.0187020079015023
 160     0.0060129818795856
 161     0.0130680388092272
 162     0.0093822232813740
 163    -0.0108773939732879
 164    -0.0198514138517118
 165    -0.1113199745935220
 166    -0.0474560390065598
 167    -0.0149606763054140
 168    -0.0066516712055458
 169    -0.0016291311264622
 170    -0.0073491203038093
 171    -0.0266163519609078
 172     0.0298882309575236
 173     0.0609485237270360
 174    -0.0730707683296849
 175     0.1072421406275468
 176     0.0005399082089253
 177     0.0000606799353789
 178    -0.0052778683922326
 179    -0.0047798825999099
 180     0.0092276447934723
 181    -0.0189134913573578
 182    -0.0456432209265884
 183    -0.0299144360908025
 184    -0.0369068521835352
 Sym= 146A
 Ene= 0.575198
 Spin= Alpha
 Occup= 2.000000
  1    -0.0001966405367483
  2    -0.0155116822450375
  3    -0.0054340075376389
  4     0.0110851451801434
  5    -0.0085816043140274
  6     0.0101011565978411
  7    -0.0134216565975449
  8     0.0942285973429468
  9    -0.0441585253003008
 10    -0.0129015567520354
 11     0.0056302875255811
 12     0.0015199390527068
 13    -0.0065243262846169
 14     0.0227527998855397
 15    -0.0252821012432058
 16     0.0535092144998267
 17     0.0616309369546800
 18     0.0914543329647691
 19     0.0009121118735528
 20    -0.0004361761779603
 21     0.0038042393087356
 22    -0.0041637418005680
 23    -0.0068012148338106
 24     0.0164350104639921
 25    -0.0362225281889789
 26     0.0262613712791908
 27    -0.0253867972480641
 28    -0.0014199803830494
 29     0.0144826060998065
 30    -0.0003893501148840
 31    -0.0040245672583339
 32    -0.0001101944036126
 33    -0.0497215945609998
 34    -0.0135975728448249
 35    -0.1416143708200946
 36    -0.0133182635720777
 37     0.1305502637230212
 38     0.0246304226739556
 39    -0.0565995929349885
 40    -0.0172475678032615
 41    -0.1670517466088337
 42    -0.0782874025886000
 43    -0.0686867029651189
 44    -0.0339832714673259
 45     0.1810292403422996
 46     0.0916880268436042
 47     0.1318595330690540
 48     0.0379511952419338
 49    -0.0788437829479246
 50    -0.0322379736561287
 51    -0.0156424102996168
 52     0.0299451316019772
 53     0.0265039079952044
 54     0.0385758379311168
 55    -0.0628422701371312
 56    -0.0311061184670942
 57     0.0896622972915125
 58     0.0211122676607624
 59     0.1233753831589432
 60     0.0708518323109691
 61    -0.0344481014552739
 62    -0.0173675799146715
 63    -0.1280381104736310
 64    -0.0608631096944845
 65    -0.0476890647835422
 66    -0.0135620274487119
 67     0.1008579788685456
 68     0.0192383627973632
 69     0.0240554573646177
 70     0.1064768950710504
 71    -0.0708406717106939
 72     0.0451656925904947
 73    -0.2005513921429617
 74     0.0835146411185231
 75    -0.0423496100291775
 76    -0.0810048472099741
 77     0.3097930075349010
 78     0.0376541480472228
 79    -0.0127503860226452
 80    -0.0620296070475259
 81     0.0295265009376908
 82    -0.0020288346674458
 83    -0.0070060427623827
 84    -0.1184497512609115
 85    -0.3192655020032488
 86    -0.0301258839844235
 87    -0.0014998409752188
 88    -0.0650315189587787
 89    -0.0341848998956549
 90    -0.0520875315202319
 91     0.0199108379268869
 92    -0.1097930216332300
 93     0.1263384989814519
 94    -0.1049582289963233
 95     0.0559041004475643
 96    -0.1244441070973803
 97    -0.0218510050516367
 98    -0.1267530978107032
 99    -0.0188978754380278
 100    -0.0652197400453981
 101     0.2160934948524572
 102    -0.0464667790470977
 103     0.0030522100942944
 104    -0.0013671672883161
 105    -0.1021613996890970
 106    -0.0349474054279632
 107     0.0024733469119457
 108    -0.0610866717902004
 109    -0.1297964074846019
 110     0.0222224415832142
 111     0.0031445711414574
 112     0.0386513948487736
 113     0.1853834002275692
 114     0.0276017141568519
 115     0.0027177882883617
 116    -0.0248384227467776
 117     0.0042611124616565
 118     0.1096758328220604
 119    -0.0165997086019962
 120     0.0377642357358424
 121     0.0795570121351889
 122     0.0970168195717605
 123     0.0527127824638560
 124     0.0839397642104386
 125     0.0091211672129908
 126     0.0502368431971135
 127     0.0191119973735289
 128     0.0788842568215356
 129    -0.2417186991963342
 130     0.0287598565129464
 131     0.0019560068250472
 132     0.0408465796689951
 133    -0.0030537053982343
 134     0.0064766666617814
 135    -0.0028830599247435
 136     0.0917628235130666
 137     0.2390712521678994
 138    -0.0246177838590772
 139    -0.0073932038442985
 140     0.0388005292258943
 141    -0.1403405055512322
 142    -0.0655919380399361
 143    -0.0331815396896795
 144     0.0610164127887489
 145     0.0149379333322564
 146    -0.0851474819122735
 147    -0.0520061211525281
 148    -0.0287388345496163
 149     0.0010598328728716
 150     0.0104587683670606
 151     0.0004538478384562
 152     0.0030913817134895
 153    -0.0001271498942282
 154    -0.0375089569576601
 155     0.0168383095911078
 156    -0.1019254762116024
 157     0.0084081811524650
 158     0.0003260499795998
 159    -0.0113835665435986
 160    -0.0042458772759432
 161    -0.0082243599879405
 162    -0.0068127624709399
 163     0.0078024801968646
 164     0.0084406050722950
 165     0.0702012636782629
 166     0.0356853193206669
 167     0.0094390601751277
 168     0.0040708494914581
 169     0.0012813257613902
 170     0.0054583554845036
 171     0.0164800281980363
 172    -0.0182731619160167
 173    -0.0437596352214856
 174     0.0440025804786662
 175    -0.0655984929577049
 176    -0.0011143544182712
 177    -0.0001373494367942
 178     0.0021193065515081
 179     0.0028250759021935
 180    -0.0039614767991361
 181     0.0123748331305468
 182     0.0255451296565063
 183     0.0172549552304318
 184     0.0124718078432036
 Sym= 147A
 Ene= 0.578251
 Spin= Alpha
 Occup= 2.000000
  1    -0.0001181776670238
  2     0.0014477843359627
  3     0.0015260885087943
  4    -0.0016522483533833
  5     0.0022562955093653
  6    -0.0019894590175396
  7    -0.0038378955625494
  8    -0.0122203522007741
  9     0.0092174093312961
 10     0.0036667047017382
 11    -0.0016508905432158
 12     0.0002705640777319
 13    -0.0013331867968823
 14    -0.0064046570822783
 15     0.0074940789690278
 16     0.0099683045498678
 17    -0.0196837653689152
 18    -0.0278424498054287
 19     0.0005201167536665
 20     0.0033654536211501
 21    -0.0025012210132669
 22     0.0027202025959587
 23     0.0037362220030532
 24    -0.0014623166782171
 25     0.0001029850961648
 26    -0.0227089421763031
 27     0.0191318114861777
 28    -0.0007433483612536
 29    -0.0054105679280283
 30     0.0009368814010802
 31    -0.0003032982055474
 32    -0.0016864175092402
 33     0.0103804843928178
 34    -0.0069080133416255
 35     0.0463633987868816
 36     0.0085992226149836
 37     0.0099913011780492
 38     0.0047561526245194
 39    -0.0219381361090616
 40    -0.0039527348446132
 41     0.0488117390165691
 42     0.0244894712995045
 43     0.0543828771849624
 44     0.0318474000516858
 45    -0.0228128281742159
 46    -0.0146845641269513
 47    -0.0472906382518674
 48    -0.0490303667605263
 49    -0.1746165284321513
 50    -0.0870864346957292
 51    -0.0644102311934180
 52    -0.0232594015119090
 53     0.1505342423646250
 54     0.0708606829533216
 55     0.1795762318863690
 56     0.0365950025063630
 57    -0.2525420146674130
 58    -0.0997134958391740
 59    -0.0876332252107051
 60    -0.0147060187818234
 61     0.0636967092438800
 62     0.0272738005144983
 63     0.0537587634975282
 64     0.0232277889533303
 65    -0.1358401734540482
 66    -0.0315345073725974
 67     0.1753386398483277
 68     0.0575164117231740
 69    -0.0034579416069052
 70     0.0188412454445497
 71     0.0188538799111656
 72     0.0045230951646658
 73     0.0741558610613900
 74     0.0196857198442411
 75    -0.0089784832411341
 76     0.0528442390925831
 77    -0.0481173666146593
 78     0.0013981928430978
 79     0.0026531599800718
 80     0.0467595507038317
 81    -0.1060374972015597
 82     0.0133222664338465
 83    -0.0010632888934706
 84     0.0312291944253583
 85     0.0041079792209643
 86    -0.0116208653544629
 87     0.0061747679104741
 88     0.0202778402716206
 89     0.0658145822034518
 90     0.0167448445716800
 91    -0.0086356176633339
 92     0.0120940893764293
 93    -0.0314381777230274
 94    -0.0154903331607430
 95     0.0098749027915512
 96     0.0091056410618067
 97    -0.1358539477152911
 98    -0.0129625102590771
 99    -0.0055011220176215
 100    -0.0760055551395743
 101     0.2062125099059268
 102     0.0352049620019812
 103     0.0034528397023764
 104    -0.0622433224287064
 105     0.0502265138783462
 106     0.0241706601501480
 107    -0.0000950386246509
 108    -0.1113809152401376
 109    -0.2879013366124611
 110     0.0627614884569553
 111     0.0054810900399640
 112    -0.1111601749086074
 113    -0.1087364915553628
 114     0.0395547370045953
 115    -0.0056713138084497
 116    -0.1320304476520596
 117     0.1723358948353566
 118     0.1058247459337104
 119    -0.0061806685670842
 120    -0.1579165240862036
 121    -0.1821347212417415
 122     0.0616739042456812
 123     0.0522720229806512
 124    -0.1581811111585991
 125     0.3679255782360009
 126     0.0103501072328322
 127    -0.0057428566894674
 128    -0.0934475141016960
 129     0.0509192745780433
 130    -0.0223923927784472
 131    -0.0032148459667053
 132    -0.1569366022496865
 133    -0.2267562741541594
 134    -0.0802702446930211
 135    -0.0246880070457712
 136    -0.0184808915510678
 137     0.1121563336622437
 138    -0.0848685192909216
 139    -0.0262836643780241
 140    -0.0656443162259946
 141     0.0721646276153246
 142    -0.1580256598073947
 143    -0.0760321553030403
 144    -0.0313500313097265
 145    -0.0059563451526324
 146    -0.1846930428790793
 147    -0.0349409493875686
 148    -0.0034039503997533
 149     0.0020918905143548
 150     0.0047854088783974
 151     0.0013977309508137
 152     0.0065233148593332
 153    -0.0026467476700130
 154    -0.0328561061763918
 155     0.0346082057828465
 156    -0.0474312500615178
 157    -0.0091402729686331
 158     0.0001118000191338
 159    -0.0143157948066064
 160    -0.0022305376117672
 161    -0.0086157423797804
 162    -0.0040941647243370
 163     0.0067368064453945
 164     0.0256823723124860
 165     0.0782952696913585
 166     0.0261813582533019
 167     0.0056931030607472
 168     0.0022446261848520
 169     0.0023599543094259
 170     0.0110196120142708
 171     0.0098063840940679
 172    -0.0090451445455097
 173    -0.0876257136633208
 174     0.0204293053825369
 175    -0.0320979915076575
 176    -0.0028273994806610
 177     0.0081531370567969
 178    -0.0021190981998888
 179    -0.0021497564883573
 180     0.0017855145630430
 181     0.0161119272948493
 182     0.0420079858115522
 183    -0.0273669940418912
 184    -0.0210725664383896
 Sym= 148A
 Ene= 0.578561
 Spin= Alpha
 Occup= 2.000000
  1     0.0001211887368259
  2     0.0149818289361994
  3     0.0024269900350918
  4    -0.0090851641356927
  5     0.0044014725991289
  6    -0.0071998234852494
  7     0.0263466535180100
  8    -0.0822401655359458
  9     0.0279414436474606
 10     0.0062318754066924
 11    -0.0024411709689402
 12    -0.0024263277728204
 13     0.0113159767601140
 14    -0.0107879161176035
 15     0.0097953343030465
 16    -0.0901337696831643
 17    -0.0228681393413306
 18    -0.0361885081601261
 19    -0.0028693282060059
 20    -0.0082005585068384
 21     0.0020032743645438
 22    -0.0019965397076622
 23    -0.0015555350329085
 24    -0.0169031374081641
 25     0.0437218881540265
 26     0.0265466351103225
 27    -0.0201949502115161
 28     0.0021534706724303
 29    -0.0054749861059095
 30    -0.0014243178923497
 31     0.0066248089045748
 32     0.0027626760983975
 33     0.0351949675202356
 34     0.0352008445263142
 35     0.0531423419105323
 36    -0.0089439571533235
 37    -0.1825635427226176
 38    -0.0588359781971442
 39     0.1385279029386473
 40     0.0319334753197255
 41    -0.0424490536913849
 42    -0.0182152966131775
 43    -0.0631233985915187
 44    -0.0275387413452962
 45     0.0765335874671681
 46     0.0089346025026623
 47     0.2433998614446201
 48     0.0983612343632630
 49    -0.1680299937898376
 50    -0.0314924265020213
 51    -0.1486005286052091
 52    -0.0732201667368132
 53     0.0517495640006566
 54     0.0152279009945793
 55     0.1673472123781738
 56     0.0874007138999444
 57     0.0613663104831266
 58     0.0560652557850480
 59     0.0205625092653158
 60     0.0107791431475006
 61    -0.0600651033544124
 62    -0.0343872556678076
 63    -0.0454269874046498
 64    -0.0228469959822139
 65     0.0381634281431451
 66     0.0078134398725700
 67    -0.0328351779404085
 68    -0.0111707988675850
 69     0.0067371191138088
 70    -0.1905943596969900
 71     0.0369494881511156
 72    -0.0050614928847402
 73    -0.0636583983816136
 74    -0.1616082296390079
 75     0.0783910190401593
 76    -0.0267547753133204
 77    -0.1301439449864323
 78    -0.0844913024668593
 79     0.0259005217563956
 80    -0.0638640550061385
 81     0.2297295449496480
 82    -0.0784984899802642
 83     0.0243844332855977
 84    -0.0109642689827144
 85    -0.0275884339616360
 86    -0.0179595932117899
 87     0.0025400929307269
 88    -0.1515373874628503
 89    -0.3694026223444856
 90     0.0155506407868399
 91     0.0033262740364195
 92    -0.0861344681008662
 93     0.1747181322143463
 94     0.0727687885133119
 95    -0.0581954394746986
 96    -0.1490268072711543
 97    -0.1682457498872913
 98     0.1171321455619051
 99     0.0074572747822785
 100    -0.1504997832240948
 101     0.0842865063377306
 102     0.0422379820610707
 103     0.0050845697333828
 104    -0.1320293018392325
 105     0.2983459254062643
 106     0.0654033140301408
 107    -0.0060758098627834
 108    -0.1022347159231122
 109    -0.0199475263071468
 110     0.0180843678867479
 111    -0.0007207192252250
 112    -0.1066324454568538
 113    -0.2129347925037936
 114     0.0305340785999966
 115    -0.0035430401337884
 116    -0.0510747911067115
 117     0.1231053401536706
 118    -0.0283532691627221
 119     0.0072047247922078
 120    -0.0689031754737623
 121     0.0416875084522061
 122    -0.0279299255566350
 123    -0.0179295461641145
 124     0.0148987468881760
 125    -0.0977466352595461
 126     0.0122451886316494
 127     0.0078049501171863
 128     0.0125623006174162
 129     0.0098748523391727
 130    -0.0117882116558106
 131    -0.0060263189153093
 132     0.0302375399859800
 133     0.1300456365226033
 134     0.0196847817025828
 135     0.0032050957453004
 136     0.0271471717225145
 137     0.0231207869233742
 138     0.0102125437928404
 139    -0.0000401302873509
 140     0.0504329229931496
 141    -0.0726261030133257
 142     0.0387097660345123
 143     0.0181442572842563
 144     0.0527341000027366
 145     0.0028130170546111
 146     0.0419062896739336
 147    -0.0125680116748977
 148     0.0067877485388513
 149    -0.0010383324951846
 150     0.0044051165599972
 151    -0.0010717850554881
 152    -0.0010586116518058
 153     0.0019748961780525
 154    -0.0051254905820766
 155    -0.0106682004653339
 156    -0.0362914539017614
 157     0.0090303383595613
 158    -0.0001229750541442
 159     0.0006317549449853
 160    -0.0011142361690354
 161    -0.0003488477734492
 162    -0.0015534943038196
 163     0.0009254162202439
 164    -0.0071394064471044
 165     0.0006048100582378
 166     0.0050908301937215
 167     0.0026017766652505
 168     0.0012062320134797
 169    -0.0005772782357415
 170    -0.0026972646712619
 171     0.0045601777279163
 172    -0.0055707115562318
 173     0.0210063962213084
 174     0.0153095504818726
 175    -0.0212085102395788
 176     0.0008350662463367
 177    -0.0042173851915933
 178     0.0025663736192851
 179     0.0027916340217373
 180    -0.0036388739053366
 181    -0.0008325580034080
 182    -0.0057439097220503
 183     0.0246024608029476
 184     0.0202268953418257
 Sym= 149A
 Ene= 0.581134
 Spin= Alpha
 Occup= 2.000000
  1     0.0001690425834717
  2     0.0085253582187039
  3    -0.0001686653352407
  4    -0.0042225661634434
  5     0.0001979095181724
  6    -0.0020861092697442
  7     0.0231845722767673
  8    -0.0410301446083021
  9     0.0069433438758158
 10     0.0000757499412856
 11     0.0001100194823942
 12    -0.0018371151824344
 13     0.0086053148064093
 14    -0.0003225638061321
 15    -0.0013331559865685
 16    -0.0688376406613726
 17     0.0051865933055454
 18     0.0053508191906196
 19    -0.0021567289872655
 20    -0.0091406750779020
 21     0.0036251562537910
 22    -0.0041806474703581
 23    -0.0044333198722416
 24    -0.0097000982071997
 25     0.0301276318492942
 26     0.0415419836454041
 27    -0.0304742351737635
 28     0.0024049151222234
 29     0.0023449860401396
 30    -0.0013717388906559
 31     0.0050870731573232
 32     0.0037750455139680
 33     0.0106210245036200
 34     0.0272974713449542
 35    -0.0144685829734072
 36    -0.0142184790302007
 37    -0.1342030852141527
 38    -0.0467580438140223
 39     0.1166860660648439
 40     0.0273241018703124
 41    -0.1063767179639094
 42    -0.0560591908404050
 43    -0.0890540998608626
 44    -0.0474049524024336
 45     0.0164275863664567
 46     0.0310534805734827
 47     0.1656153824314520
 48     0.0887401110997642
 49     0.0823921219524756
 50     0.0664268111783610
 51     0.1888984584981165
 52     0.0816552498356793
 53    -0.1920057025968568
 54    -0.0837140988099189
 55    -0.0786853566435162
 56    -0.0632929816402073
 57    -0.1607414326977833
 58    -0.0854549584278530
 59    -0.0155891604500885
 60    -0.0317893328710813
 61     0.0878691262287691
 62     0.0464493699154618
 63     0.1074701824969017
 64     0.0565536087732236
 65    -0.1144767904568694
 66    -0.0270492958748401
 67     0.1301335687487571
 68     0.0454516860479027
 69     0.0028200236960568
 70    -0.1494688665873256
 71     0.0046673798031179
 72    -0.0170097365078854
 73    -0.1202713696055119
 74    -0.1286611986087025
 75     0.0618177462449441
 76    -0.0847222823014743
 77     0.0068610333595486
 78    -0.0740659806110540
 79     0.0217519928563610
 80    -0.0789511597997601
 81     0.2561455487325485
 82    -0.0763815010399741
 83     0.0213453160530555
 84    -0.0503369892124270
 85     0.0038508488023183
 86    -0.0072439466823188
 87     0.0026279973768190
 88    -0.0780715579631314
 89    -0.2256392484387711
 90    -0.0253471026329484
 91     0.0196534646623121
 92    -0.0302952499258649
 93     0.1159297272062456
 94     0.0311244771162906
 95    -0.0277968602729912
 96    -0.0478265654047759
 97     0.1589921718361723
 98     0.0784831808846056
 99     0.0104238579810939
 100     0.0970419841511736
 101    -0.1763792136294091
 102     0.0566540176645063
 103     0.0000042428584021
 104     0.0988625411428209
 105    -0.1502720997993669
 106     0.0746415823224282
 107     0.0031695484241493
 108     0.0788020651408716
 109     0.1604317926046846
 110     0.0738071534818239
 111    -0.0036098320833467
 112     0.0763880352894022
 113     0.1653426117538219
 114     0.0560018148073901
 115     0.0001122964558030
 116     0.1005093296123082
 117    -0.1574791385683879
 118     0.0713095709016096
 119    -0.0096117257670753
 120     0.0980802692776166
 121    -0.1140992919889104
 122     0.0260178632905740
 123     0.0244361396209523
 124    -0.0457172498484000
 125     0.2155637667289830
 126    -0.0264042500275204
 127    -0.0200001974249221
 128    -0.0284611604129790
 129     0.0006050255150841
 130    -0.0090298160922312
 131    -0.0032357778302181
 132    -0.0758124160474277
 133    -0.2504880901673130
 134    -0.0750634745191934
 135    -0.0208878628704754
 136    -0.0513987092531437
 137    -0.0121223340938372
 138    -0.0734011666749902
 139    -0.0217323391768493
 140    -0.0763106017724630
 141     0.1184542972754353
 142    -0.1258287596105025
 143    -0.0599590473636789
 144    -0.0849333678978597
 145    -0.0011773968050277
 146    -0.1457615903510038
 147    -0.0048497746376288
 148    -0.0171698182855484
 149     0.0023944790855712
 150    -0.0024915474624024
 151     0.0013057993130834
 152     0.0049690311159488
 153    -0.0036705442990607
 154    -0.0100143049803969
 155     0.0263355486228742
 156     0.0150698790977164
 157    -0.0138490371150197
 158     0.0001461528219555
 159    -0.0083207573223519
 160     0.0002107284139492
 161    -0.0040909426566293
 162    -0.0001194630777147
 163     0.0019711135707073
 164     0.0228708041086529
 165     0.0398564902774503
 166     0.0063098306359899
 167    -0.0000077412098201
 168    -0.0001108409339796
 169     0.0018018451016459
 170     0.0083895092346298
 171     0.0001601529364909
 172     0.0012169079829651
 173    -0.0672181969662998
 174    -0.0053688387773620
 175     0.0060231238854551
 176    -0.0020960854577372
 177     0.0089884961692804
 178    -0.0035441247300863
 179    -0.0041259964208313
 180     0.0043263157594950
 181     0.0094429953999101
 182     0.0295472759713936
 183    -0.0408895246690317
 184    -0.0298121939550090
 Sym= 150A
 Ene= 0.592492
 Spin= Alpha
 Occup= 2.000000
  1     0.0001740205755529
  2     0.0035264504376734
  3     0.0040435882630840
  4    -0.0047590477688135
  5     0.0065259505447889
  6    -0.0097314742143092
  7    -0.0166061983629358
  8    -0.0343195349713191
  9     0.0287851531925065
 10     0.0092107719328672
 11    -0.0043180095339713
 12     0.0004510825264214
 13    -0.0019368059276935
 14    -0.0172131396835343
 15     0.0187413351383559
 16     0.0170700513513676
 17    -0.0509356451003524
 18    -0.0723417870491402
 19     0.0003863011463487
 20     0.0087370191678899
 21    -0.0044010490991077
 22     0.0069466595255349
 23     0.0066405275788086
 24    -0.0070713428998283
 25    -0.0017268185185719
 26    -0.0560272103797360
 27     0.0328285740333787
 28     0.0000350952260538
 29    -0.0115837341662830
 30     0.0004145500269624
 31    -0.0011749975904354
 32    -0.0016995471858548
 33     0.0327897692565745
 34    -0.0023455644991704
 35     0.1106553633550053
 36     0.0156204471287821
 37     0.0144077880205204
 38     0.0077004091594674
 39    -0.0569058250099867
 40    -0.0122121798523526
 41     0.1167337753560286
 42     0.0633470121843164
 43     0.0910624468890883
 44     0.0578340239076111
 45     0.0973751399057002
 46     0.0406693581120231
 47     0.0338423676310433
 48     0.0083119538848362
 49    -0.1185055078942442
 50    -0.0644928639773328
 51    -0.1087181106378005
 52    -0.0453995168383359
 53    -0.1055273237101734
 54    -0.0429163498545094
 55    -0.1148113849277975
 56    -0.0625402655647645
 57     0.0394093827039875
 58     0.0118409025709410
 59     0.1085562848655488
 60     0.0465101389143624
 61     0.0978170445511348
 62     0.0620521965125112
 63     0.1252337971239717
 64     0.0680248681281819
 65    -0.0616664765925494
 66    -0.0132538141541661
 67     0.0152763645955309
 68     0.0079798974464828
 69    -0.0256259834290448
 70     0.0426557014730496
 71     0.0496844400331977
 72    -0.0310786514656466
 73     0.2188396099744105
 74     0.0405706801123612
 75    -0.0202555401498446
 76     0.0971897414501003
 77    -0.1467177942636473
 78    -0.0070389655686392
 79     0.0099024319588970
 80     0.1007670691808984
 81    -0.2162923850940693
 82     0.0628008674839523
 83    -0.0154993421424673
 84     0.0904208908199396
 85    -0.1462529775068383
 86    -0.0231409583273995
 87     0.0025523029302854
 88    -0.0815927620295386
 89    -0.0789464513440675
 90     0.0589530775743322
 91    -0.0315948427669663
 92    -0.0956711627191301
 93     0.1503259179219631
 94     0.0013416796723652
 95    -0.0041721994119894
 96    -0.0906048523137010
 97    -0.1916987160725579
 98    -0.0152040065105754
 99    -0.0045086261390408
 100    -0.1115153449746837
 101     0.1933538655142374
 102    -0.0317882361057630
 103     0.0014876234506441
 104    -0.1012153082397043
 105     0.1510442973562737
 106     0.0293749243206972
 107    -0.0028285338096502
 108    -0.1131746540879853
 109     0.1490178201662517
 110    -0.0308701352629583
 111    -0.0026753923355097
 112     0.1109655910356345
 113     0.1897610529187740
 114     0.0323746477358764
 115     0.0013902612854295
 116     0.0978676628769030
 117    -0.1883519369484086
 118     0.0140305072050121
 119    -0.0038905971200321
 120     0.1097868189446205
 121     0.1654764368541985
 122    -0.0030687446113006
 123    -0.0055022423196124
 124     0.0977985335803268
 125    -0.0893685908278203
 126    -0.0633606403799345
 127    -0.0337462630112091
 128     0.1052555315973598
 129    -0.1590751634273137
 130     0.0225000088074044
 131     0.0015595304269240
 132     0.0897805265011069
 133    -0.2321186165841931
 134    -0.0679817568407696
 135    -0.0168060476533539
 136    -0.0977263964451501
 137    -0.1579844683523582
 138     0.0081038638018550
 139     0.0108057827773106
 140    -0.1075608440497541
 141     0.2357818417003668
 142    -0.0441101425046619
 143    -0.0218501375541831
 144    -0.1039542514892624
 145    -0.0270466151800563
 146    -0.0461059759958083
 147     0.0530158679115637
 148     0.0344949742931585
 149    -0.0000584863016032
 150    -0.0123442336433715
 151     0.0003269710723047
 152     0.0011656632155688
 153    -0.0018005804549891
 154     0.0349613870959673
 155     0.0007353775551584
 156     0.1179718997142841
 157    -0.0166311861193421
 158    -0.0002704796679034
 159     0.0036008076820893
 160     0.0044183809913984
 161     0.0050470466948054
 162     0.0071628324582075
 163    -0.0105005824934263
 164     0.0187059740714453
 165    -0.0362500466737219
 166    -0.0318308350482713
 167    -0.0098135080092663
 168    -0.0046008921606824
 169     0.0004686135419754
 170     0.0020142621975102
 171    -0.0183848287549243
 172     0.0199396395795782
 173    -0.0181867555189459
 174    -0.0543791734716049
 175     0.0772641157757586
 176    -0.0003421389392283
 177     0.0094778920429187
 178    -0.0045840440027730
 179    -0.0074448308836497
 180     0.0068734461857997
 181    -0.0074601174023391
 182     0.0028087412387549
 183    -0.0600791501534112
 184    -0.0339235212020381
 Sym= 151A
 Ene= 0.597795
 Spin= Alpha
 Occup= 2.000000
  1    -0.0001917283937992
  2    -0.0037330039237533
  3    -0.0042430705882993
  4     0.0053400656566442
  5    -0.0070168504493108
  6     0.0123272712161295
  7     0.0199976967031018
  8     0.0377044720226924
  9    -0.0305337545089636
 10    -0.0100221647078137
 11     0.0048579154139046
 12    -0.0005626583345766
 13     0.0021866602407962
 14     0.0193800143518379
 15    -0.0209575458056359
 16    -0.0199285336176356
 17     0.0573737032214011
 18     0.0805614411524191
 19    -0.0004273124296613
 20    -0.0099029746250071
 21     0.0046341672958814
 22    -0.0078699570031384
 23    -0.0070628915082969
 24     0.0088419410376706
 25     0.0020341836653533
 26     0.0628353902786291
 27    -0.0350742107614919
 28    -0.0008679919968307
 29     0.0118773247356494
 30    -0.0003824616313029
 31     0.0014956824057437
 32     0.0009369123219765
 33    -0.0372458832783748
 34     0.0026444360473268
 35    -0.1197417503373904
 36    -0.0157843350475772
 37    -0.0166482218507873
 38    -0.0073759950200536
 39     0.0701246878440844
 40     0.0154974702416034
 41    -0.1122564756295366
 42    -0.0624355539903959
 43    -0.0976601355264685
 44    -0.0617942940417761
 45    -0.1568331699843087
 46    -0.0851546296915705
 47    -0.0943062209286729
 48    -0.0581710895855947
 49    -0.0716066788764035
 50    -0.0367028233795566
 51    -0.0447206298423346
 52    -0.0363173795912822
 53     0.0579729573622616
 54     0.0425096946443515
 55     0.0853574916272057
 56     0.0439357019653742
 57     0.0930095087008842
 58     0.0589522477367411
 59     0.1534975409383957
 60     0.0845451860000573
 61     0.0933561158803202
 62     0.0589204912660572
 63     0.1066983809712150
 64     0.0593727745577017
 65    -0.0669560030407272
 66    -0.0147895015685219
 67     0.0146761204869998
 68     0.0064177433854505
 69     0.0377608850263685
 70    -0.0529776588126256
 71    -0.0558965641956922
 72     0.0560629642192627
 73    -0.2490373107217776
 74    -0.0443049075479577
 75     0.0235495254116945
 76    -0.0831159213032070
 77     0.1463493824946104
 78     0.0160358963301591
 79    -0.0146680508922420
 80    -0.1072006768205091
 81     0.2347152006956351
 82    -0.0701588968836001
 83     0.0179501129894752
 84    -0.0953588886454947
 85     0.2221835996160479
 86     0.0230741716818483
 87     0.0023239314521266
 88     0.1273979045852153
 89     0.1399928312223159
 90    -0.0498737231638131
 91     0.0282100477451057
 92     0.1480295075901126
 93    -0.2438583596596724
 94     0.0052370777390377
 95     0.0027583448589114
 96     0.1182718244218762
 97    -0.0595691248858443
 98     0.0186245200666420
 99    -0.0010050458632835
 100    -0.0388250344049787
 101     0.0517288524973243
 102     0.0281502001153673
 103     0.0030538575500832
 104    -0.0402833307303632
 105     0.0578860277242830
 106     0.0024091031144245
 107    -0.0008676007806881
 108    -0.0447419979232302
 109    -0.0736789285365561
 110     0.0031751176006453
 111     0.0011385772027336
 112    -0.0570084189641488
 113    -0.0729050058714078
 114     0.0252669303431396
 115    -0.0035302013862167
 116    -0.0508663115229441
 117     0.0783993207036967
 118     0.0164547666692614
 119     0.0015958819066222
 120    -0.0506494616643507
 121     0.2375998054191025
 122     0.0038113245470254
 123    -0.0033041700835947
 124     0.1124402264455792
 125    -0.1379457798832179
 126    -0.0472552517937184
 127    -0.0265663747933005
 128     0.1434381903865173
 129    -0.2142330525308090
 130     0.0196943179700000
 131    -0.0033956667792321
 132     0.1238752956003525
 133    -0.2233551264113699
 134    -0.0671611584146242
 135    -0.0171752689895333
 136    -0.0916257513018429
 137    -0.1402336159010161
 138     0.0164999294682569
 139     0.0144336148812488
 140    -0.1019948556593881
 141     0.2389104368228273
 142    -0.0421126055930297
 143    -0.0222980668737645
 144    -0.0784921036539507
 145    -0.0357350953745013
 146    -0.0499126990531764
 147     0.0532547088822035
 148     0.0552681112471952
 149    -0.0008843515418886
 150    -0.0112610773846829
 151     0.0002750147886885
 152     0.0013030669640185
 153    -0.0008427681896656
 154     0.0354432906567632
 155     0.0008028388267344
 156     0.1137316477734361
 157    -0.0149182628486608
 158    -0.0002613369769649
 159     0.0034691427507503
 160     0.0041261569090793
 161     0.0050850353703178
 162     0.0068534464185210
 163    -0.0118524865767759
 164     0.0197365121295354
 165    -0.0358307202559756
 166    -0.0300737185116966
 167    -0.0095166967647531
 168    -0.0046181830954063
 169     0.0005084026858657
 170     0.0019795246220547
 171    -0.0184685199342097
 172     0.0198962209527085
 173    -0.0184886423437736
 174    -0.0546304797380993
 175     0.0767104898650327
 176    -0.0003372997343890
 177     0.0095001561869730
 178    -0.0042927695136621
 179    -0.0074921007233815
 180     0.0065119334700371
 181    -0.0084070760446179
 182     0.0025716931009343
 183    -0.0597796573996783
 184    -0.0322510113090324
 Sym= 152A
 Ene= 0.602223
 Spin= Alpha
 Occup= 2.000000
  1    -0.0000111361587707
  2     0.0028503117126060
  3     0.0021218891943455
  4    -0.0034251425270868
  5     0.0035982724433568
  6    -0.0077914845703961
  7    -0.0093771127488467
  8    -0.0244592221362899
  9     0.0153536565630278
 10     0.0056898053872890
 11    -0.0028804274389151
 12     0.0002401346663883
 13    -0.0009741870011374
 14    -0.0114048961926258
 15     0.0126966451530185
 16     0.0084521957233289
 17    -0.0335986464186330
 18    -0.0462094114255674
 19     0.0002677925530339
 20     0.0050917718242816
 21    -0.0025512411090541
 22     0.0044056310014012
 23     0.0040937869971675
 24    -0.0065602222840753
 25     0.0023336113193263
 26    -0.0341807116653179
 27     0.0199041914806462
 28     0.0014079209305764
 29    -0.0060731036037878
 30     0.0004422448486581
 31    -0.0005883159246010
 32     0.0003101482226075
 33     0.0225198123980325
 34    -0.0030604385548675
 35     0.0667841580835822
 36     0.0078571263015040
 37    -0.0008559446387625
 38     0.0024171668149839
 39    -0.0375277646121063
 40    -0.0079776464272760
 41     0.0658460785334831
 42     0.0354026838567545
 43     0.0578541731104094
 44     0.0352003484372115
 45     0.1229733063851253
 46     0.0798479410911632
 47     0.0950783040369660
 48     0.0647757406412647
 49     0.1822916775003571
 50     0.0990737102230163
 51     0.1862897759272139
 52     0.1072289902415748
 53     0.1906267361428255
 54     0.1085166658486083
 55     0.1794992706546543
 56     0.0975465184797444
 57     0.0920847367965679
 58     0.0625279966718544
 59     0.1170857212711692
 60     0.0778796664981087
 61     0.0581146435989103
 62     0.0347895825522586
 63     0.0576553947885486
 64     0.0312565224313182
 65    -0.0366892808048555
 66    -0.0076865971020349
 67    -0.0002056527269608
 68     0.0019203555415326
 69    -0.0298231836109322
 70     0.0241161324073679
 71     0.0338048173262461
 72    -0.0518377620478632
 73     0.1369942282594275
 74     0.0185398091174195
 75    -0.0110711651801245
 76     0.0190606064388408
 77    -0.0903314910875321
 78    -0.0057866366888951
 79     0.0061775253579658
 80     0.0471508267586837
 81    -0.1270839510949144
 82     0.0288372164428197
 83    -0.0067419865289261
 84     0.0413570544006994
 85    -0.1386060481731991
 86     0.0058074070026469
 87    -0.0123548192198643
 88    -0.1024408170450635
 89    -0.1037899993848704
 90     0.0088363418552122
 91    -0.0068337124281208
 92    -0.1118574375674457
 93     0.1501795028191613
 94    -0.0009693650765274
 95    -0.0034781627339519
 96    -0.0810015800627597
 97     0.2497602981325373
 98    -0.0074674771506491
 99     0.0047463933727393
 100     0.1126388621837849
 101    -0.2178643567250246
 102     0.0040475986316587
 103    -0.0055103388711014
 104     0.1503470383150186
 105    -0.2420639515318276
 106    -0.0034286237723235
 107     0.0057264690647822
 108     0.1430096779546576
 109    -0.2454256636804847
 110     0.0017271255576542
 111     0.0058807453255730
 112    -0.1454519820181505
 113    -0.2167450783614449
 114    -0.0068803920220190
 115    -0.0054690308777689
 116    -0.1493401825396309
 117     0.2501129921576875
 118     0.0075742995033302
 119     0.0039353122609485
 120    -0.1147536786390238
 121     0.1430672264383677
 122     0.0054115850068491
 123    -0.0011597185445471
 124     0.0758343038866204
 125    -0.0947313434273971
 126    -0.0051076864910097
 127    -0.0049517420849079
 128     0.1077300877629588
 129    -0.1356636320547896
 130    -0.0048005990680258
 131    -0.0113881369280981
 132     0.0967600091433122
 133    -0.1237610142455992
 134    -0.0248518526442285
 135    -0.0053986281466755
 136    -0.0373987205324560
 137    -0.0800279755182562
 138     0.0078508480771968
 139     0.0068920954186391
 140    -0.0446181671680067
 141     0.1288250547311112
 142    -0.0178785667340320
 143    -0.0107379533798757
 144    -0.0165349651269820
 145    -0.0284093159070891
 146    -0.0239399286249886
 147     0.0319298867790821
 148     0.0501201202730982
 149    -0.0013433104665857
 150    -0.0057386826448959
 151     0.0004826681280801
 152     0.0005033096189734
 153     0.0002725272915512
 154     0.0209814011937742
 155     0.0028888122026240
 156     0.0631677001909443
 157    -0.0075971468360339
 158    -0.0000076440994678
 159     0.0026245776761337
 160     0.0020226861657482
 161     0.0032127764979177
 162     0.0034328585084581
 163    -0.0073491444632114
 164     0.0090930176774585
 165    -0.0228257867223093
 166    -0.0146187710415115
 167    -0.0053486994417995
 168    -0.0027271299368143
 169     0.0002421171616315
 170     0.0009669495898116
 171    -0.0107930931066970
 172     0.0120219854083196
 173    -0.0084776419785885
 174    -0.0319187532256261
 175     0.0437346803698705
 176    -0.0002767806299967
 177     0.0048936990279779
 178    -0.0024429076256085
 179    -0.0041969797008391
 180     0.0039000336449747
 181    -0.0061180783158165
 182    -0.0019034222818783
 183    -0.0325942426868661
 184    -0.0190354789037501
 Sym= 153A
 Ene= 0.626598
 Spin= Alpha
 Occup= 2.000000
  1    -0.0018500538924335
  2     0.0138858845913962
  3     0.0090546385322279
  4    -0.0177447146428909
  5     0.0178599581850803
  6    -0.0495556607613305
  7    -0.0545488731808847
  8    -0.1259832974197738
  9     0.0698550265196262
 10     0.0277532870359423
 11    -0.0137890555660050
 12     0.0011503411328965
 13    -0.0020702851372658
 14    -0.0540078739135854
 15     0.0608470238599257
 16     0.0275608256091561
 17    -0.1609020507996919
 18    -0.2035046662397398
 19    -0.0021942277678821
 20     0.0245643696352037
 21    -0.0086290240798908
 22     0.0212740891571693
 23     0.0155140227766557
 24    -0.0398063430369916
 25     0.0100303424373037
 26    -0.1614128742730965
 27     0.0668938610563450
 28     0.0025012752689172
 29    -0.0358091143348047
 30    -0.0009064526970012
 31    -0.0023416833192490
 32    -0.0049590729108418
 33     0.1197825966253593
 34     0.0039074409314707
 35     0.3145875801353032
 36     0.0100460894599281
 37     0.0159950228588305
 38    -0.0255184463294602
 39    -0.1278620363211858
 40    -0.0394821339437614
 41    -0.1805725487609621
 42    -0.0807643082320294
 43    -0.0032196604122525
 44     0.0127222150538704
 45    -0.0134956208814093
 46     0.0121784716267241
 47    -0.0044400357348340
 48    -0.0299683763816820
 49    -0.1201034674098246
 50    -0.0508110682789485
 51     0.1142731049343384
 52     0.0483205094148611
 53    -0.1133831646181647
 54    -0.0474880356666451
 55     0.1221153631075449
 56     0.0516046315239489
 57     0.0015430999087261
 58     0.0286155393485321
 59     0.0153450523311628
 60    -0.0117077055161330
 61    -0.0029036199320292
 62    -0.0145080112021625
 63     0.1744324401188319
 64     0.0783395559972875
 65     0.1200250298755795
 66     0.0367067280003701
 67    -0.0147858494705759
 68     0.0248243627700569
 69    -0.0807340349577703
 70     0.0858146486383289
 71     0.1441460256201812
 72    -0.0223184789506272
 73    -0.0914410958297012
 74     0.0403865012563180
 75    -0.0353719013985423
 76    -0.0588576895802786
 77     0.2259578530937887
 78    -0.0444900657093529
 79     0.0248502605290723
 80    -0.0451079621035352
 81    -0.0567909597295104
 82    -0.0323176262968048
 83     0.0205643849486204
 84    -0.0810578213464591
 85    -0.0812692966779200
 86    -0.0279742577339747
 87     0.0152744368266655
 88     0.0457839662311684
 89     0.1177927621836158
 90    -0.0241194695413598
 91     0.0089196815731483
 92    -0.0479418657617453
 93    -0.0118535561117258
 94    -0.0856984612046927
 95     0.0317822253754986
 96    -0.0055604030883904
 97     0.0043853170840840
 98     0.0651868472726385
 99    -0.0104981190244046
 100    -0.0054490543783051
 101     0.0348432209295875
 102     0.1048321791763370
 103     0.0090523462074173
 104    -0.0355954106801443
 105    -0.0405254913140921
 106     0.1017888553623544
 107     0.0068276361685238
 108     0.0216546256145163
 109     0.0391740547179063
 110     0.1030202272941295
 111    -0.0071088653731082
 112     0.0187158105543985
 113    -0.0409032702621116
 114     0.1022615069741736
 115    -0.0093318767279853
 116    -0.0369219054211452
 117     0.0011459800730604
 118     0.0636489197112113
 119     0.0106631929795674
 120    -0.0088271966861867
 121     0.0127427755078452
 122    -0.0869442214085549
 123    -0.0323365499754421
 124    -0.0046378229905070
 125    -0.1166629692544802
 126    -0.0269558649940213
 127    -0.0101990963939864
 128    -0.0479560881055417
 129     0.0805777937899010
 130    -0.0294253782439293
 131    -0.0160718740777213
 132     0.0454593453818079
 133     0.0593000682974608
 134    -0.0351264257858238
 135    -0.0210241648777165
 136    -0.0791399370684365
 137    -0.2188104656638225
 138    -0.0439296102692668
 139    -0.0242834716230110
 140    -0.0410216427400945
 141     0.0872948886322008
 142     0.0377043436323774
 143     0.0329900773433621
 144    -0.0569256496772176
 145     0.0741363891619384
 146     0.0807245312039887
 147    -0.1334819235708762
 148    -0.0224016093302952
 149     0.0023220877650110
 150     0.0331545241618216
 151     0.0008105544169531
 152    -0.0017434388900456
 153     0.0046697700979646
 154    -0.1099875271081679
 155     0.0057821604460655
 156    -0.2908541122764566
 157     0.0096864311958251
 158    -0.0015893813814392
 159    -0.0125690563650515
 160    -0.0085281926353074
 161    -0.0163450791020097
 162    -0.0168275508646768
 163     0.0458752392484608
 164    -0.0518230762779096
 165     0.1157507084023627
 166     0.0660806930628071
 167     0.0255743123847031
 168     0.0127453422479359
 169    -0.0010627154068524
 170    -0.0018785022582239
 171     0.0499089759422642
 172    -0.0563125337684714
 173     0.0259207403098986
 174     0.1490195917569723
 175    -0.1879489923425188
 176    -0.0020853101062279
 177    -0.0229897741351382
 178     0.0079198769587611
 179     0.0197281840834319
 180    -0.0141632205803336
 181     0.0364402534158701
 182     0.0076706412648294
 183     0.1497895444675545
 184     0.0609701272194000
 Sym= 154A
 Ene= 0.628400
 Spin= Alpha
 Occup= 2.000000
  1     0.0017334394169441
  2    -0.0173439581651181
  3    -0.0107268462316152
  4     0.0214936303718144
  5    -0.0217685143848052
  6     0.0605662280817598
  7     0.0651473207936797
  8     0.1551270743537981
  9    -0.0893746837768428
 10    -0.0324233345116598
 11     0.0156876364340788
 12    -0.0002196213116091
 13    -0.0008112260856260
 14     0.0621410292422314
 15    -0.0690402100865589
 16    -0.0065092656722790
 17     0.1805193295197779
 18     0.2310784398234461
 19     0.0044580022648345
 20    -0.0264095264436389
 21     0.0069167518915718
 22    -0.0234054710468308
 23    -0.0135108971296324
 24     0.0499537678815648
 25    -0.0140056753613393
 26     0.1748525737484777
 27    -0.0515746223842019
 28    -0.0040650917554389
 29     0.0404868521612836
 30     0.0035998326762193
 31     0.0015667560205232
 32     0.0042302018563164
 33    -0.1486204691551471
 34    -0.0303042989430413
 35    -0.3539588376076792
 36    -0.0017265952249581
 37     0.0298853676378172
 38     0.0332615390890255
 39     0.1021656040204479
 40     0.0374428777528152
 41     0.0855539957348893
 42     0.0384080363465801
 43     0.1176099810444418
 44     0.0373234444552120
 45    -0.0273944723496190
 46    -0.0074929224619707
 47     0.0540127562779135
 48     0.0310017899175106
 49     0.0093077442813892
 50     0.0117494826947388
 51     0.0027634004669724
 52    -0.0050110842523308
 53     0.0066364648642915
 54    -0.0040182349001222
 55     0.0060616337251640
 56     0.0112613102269178
 57     0.0605515984968684
 58     0.0339109878404479
 59    -0.0313897474270023
 60    -0.0083367561550503
 61     0.1300430972860748
 62     0.0414292233388191
 63     0.0893442094443735
 64     0.0402564323128307
 65     0.1109330731147578
 66     0.0407530716891471
 67     0.0349548465581511
 68     0.0372390515955992
 69     0.0849329689531415
 70    -0.0385507628570791
 71    -0.1683467541634366
 72     0.0226303492877083
 73     0.1013977051312962
 74    -0.0356395850295787
 75     0.0330607329262500
 76     0.0597206728338139
 77    -0.1250686106719947
 78    -0.0173538605563603
 79     0.0017493994468717
 80     0.0606477577694191
 81    -0.0618421133281759
 82    -0.0327670294353595
 83     0.0062684764762329
 84     0.0740257497325022
 85     0.0111699578897296
 86    -0.0262288670188053
 87     0.0137163648091925
 88    -0.0107993942943723
 89    -0.0538255840916754
 90    -0.0342991760507849
 91     0.0196228879681119
 92     0.0052676394301761
 93     0.0100202407527074
 94    -0.0110504102415435
 95     0.0035124365294332
 96     0.0014373158431319
 97    -0.0079651363548886
 98    -0.0028425143990381
 99    -0.0006865375335528
 100    -0.0017288573131594
 101    -0.0033228588681244
 102    -0.0149692789753996
 103    -0.0001711383508006
 104    -0.0009890990627557
 105     0.0026265283000773
 106    -0.0015816435895912
 107     0.0004412328912961
 108     0.0020658822021630
 109     0.0015383042580541
 110    -0.0017759174887685
 111     0.0006526759459777
 112    -0.0025229980482070
 113    -0.0029328302104173
 114     0.0117737960507663
 115     0.0000679188828173
 116     0.0011886507107873
 117    -0.0076464183199315
 118     0.0000737328348077
 119    -0.0007896594140901
 120     0.0015188236513256
 121     0.0110976984876322
 122     0.0127461552358409
 123     0.0037033295596573
 124    -0.0009767858496548
 125    -0.0597302448567458
 126     0.0379711573573234
 127     0.0218741177773260
 128    -0.0054382780468642
 129     0.0121388723485755
 130     0.0294359527826650
 131     0.0155045997608800
 132     0.0106455427076329
 133    -0.0679655772226420
 134     0.0374286809207126
 135     0.0074160289607070
 136    -0.0813027590991482
 137    -0.1336254555433798
 138     0.0218187175916794
 139     0.0029797951926429
 140    -0.0652480838503697
 141     0.1097849014396038
 142     0.0395126737690164
 143     0.0362897472244547
 144    -0.0658226683064815
 145     0.0917323346070026
 146     0.0406761233384399
 147    -0.1840279786093586
 148    -0.0267072489177278
 149     0.0045056045906541
 150     0.0440856890910249
 151     0.0041006419339390
 152    -0.0011206854828218
 153     0.0046728825652236
 154    -0.1614025018620348
 155     0.0377260971268645
 156    -0.3850554290292047
 157     0.0020346036882331
 158    -0.0016856980699134
 159    -0.0185945167626215
 160    -0.0119476528231927
 161    -0.0233827084154009
 162    -0.0242571821420337
 163     0.0662122816773561
 164    -0.0730652272605362
 165     0.1685650545747405
 166     0.1001345651721098
 167     0.0352312424092317
 168     0.0170795222652071
 169    -0.0001543582218923
 170     0.0011373956124422
 171     0.0676058007756923
 172    -0.0753201091514491
 173     0.0060527586796182
 174     0.1966079832801963
 175    -0.2510550297526987
 176    -0.0050595433587787
 177    -0.0290436990919720
 178     0.0072695919976452
 179     0.0254984005721640
 180    -0.0141903877780264
 181     0.0540475440049597
 182     0.0130580184202350
 183     0.1905202856484140
 184     0.0533234646597586
 Sym= 155A
 Ene= 0.631688
 Spin= Alpha
 Occup= 2.000000
  1    -0.0009273148725811
  2     0.0141291893862376
  3     0.0082024160689256
  4    -0.0170697011570554
  5     0.0173927464039705
  6    -0.0493363629327504
  7    -0.0519549021381037
  8    -0.1253293104054193
  9     0.0751881260246648
 10     0.0246685348952025
 11    -0.0115015583684125
 12    -0.0009643727991080
 13     0.0037764414750560
 14    -0.0463051822328433
 15     0.0504550874986243
 16    -0.0200592604538189
 17    -0.1296880138193982
 18    -0.1688269988262903
 19    -0.0053444975918958
 20     0.0179515893772583
 21    -0.0019734483242789
 22     0.0164259328244933
 23     0.0054897480918806
 24    -0.0416334555908070
 25     0.0124006163188716
 26    -0.1197919818701998
 27     0.0119266024930182
 28     0.0043525878475279
 29    -0.0293393447035688
 30    -0.0053451897927338
 31    -0.0001252529243661
 32    -0.0015584302249670
 33     0.1224013012630401
 34     0.0489994328325023
 35     0.2547663123784506
 36    -0.0095758332253009
 37    -0.0699865111562051
 38    -0.0274145728234460
 39    -0.0319624867786726
 40    -0.0204362709467139
 41     0.0729912686143824
 42     0.0323727684226261
 43    -0.2119855634365676
 44    -0.0848595535345560
 45     0.0693210004814973
 46    -0.0024872390348412
 47    -0.0979416887557040
 48    -0.0169526942305697
 49     0.1689709358798245
 50     0.0585142431605869
 51    -0.1687423360043184
 52    -0.0616528982063309
 53     0.1650307488874452
 54     0.0598543070791410
 55    -0.1701612994641512
 56    -0.0592983506129368
 57     0.0963457994416523
 58     0.0156714123101814
 59    -0.0698658063691623
 60     0.0014972975062654
 61     0.2050995089968221
 62     0.0826191806683335
 63    -0.0836921018533376
 64    -0.0370648542631660
 65     0.0234007020181866
 66     0.0174651814326946
 67     0.0698096457455742
 68     0.0254790774588261
 69    -0.0558539280116619
 70    -0.0308498809118155
 71     0.1279287956664394
 72    -0.0150473755074232
 73    -0.0716786855100172
 74     0.0190661894576236
 75    -0.0187106544939632
 76    -0.0383343280833886
 77    -0.0516971849192212
 78     0.0940828901721242
 79    -0.0366572750071435
 80    -0.0537431597939768
 81     0.1799922681304154
 82     0.1040826122311470
 83    -0.0384677265465946
 84    -0.0372909070524547
 85     0.0764723449473975
 86     0.0813522720990813
 87    -0.0443033902151492
 88    -0.0390797661873058
 89    -0.0355300208974640
 90     0.0865248190113985
 91    -0.0452132902280312
 92     0.0521508919321910
 93    -0.0114347395875572
 94     0.1206373469099675
 95    -0.0408671423870380
 96     0.0047977362790721
 97     0.0001098079303614
 98    -0.0958525557991522
 99     0.0131470161037948
 100    -0.0005091790002492
 101    -0.0552421268556285
 102    -0.1456411714877563
 103    -0.0129315523599608
 104     0.0368975072460558
 105     0.0550785070923927
 106    -0.1474308243048754
 107    -0.0101911545768579
 108    -0.0338060934888617
 109    -0.0474207524230521
 110    -0.1487676523964182
 111     0.0104850451130610
 112    -0.0324407535458435
 113     0.0552713479484859
 114    -0.1451992535610787
 115     0.0133772278248863
 116     0.0398465976934890
 117    -0.0040228564358303
 118    -0.0988895055470197
 119    -0.0131488111798210
 120     0.0031729667282490
 121     0.0088821555271260
 122     0.1208617374608904
 123     0.0405115874473091
 124     0.0047732603856014
 125     0.0398806658747711
 126     0.0863776395989242
 127     0.0447545043712167
 128     0.0540502899519965
 129    -0.0764211626659295
 130     0.0807708149934092
 131     0.0441262575573452
 132    -0.0420885740441527
 133    -0.1755180064878628
 134     0.1045580555035791
 135     0.0388284895916597
 136    -0.0303532529796248
 137     0.0653996193988044
 138     0.0942994774897295
 139     0.0369798722025167
 140    -0.0477797608721876
 141     0.0609018932308108
 142     0.0171844235460081
 143     0.0165002855609296
 144    -0.0328727802726031
 145     0.0497842066725396
 146    -0.0353305215397079
 147    -0.1166498598366890
 148    -0.0145462139527528
 149     0.0040931985255622
 150     0.0264532994017510
 151     0.0051855892389401
 152     0.0003806939208111
 153     0.0013560892297156
 154    -0.1112287016383402
 155     0.0496317524126080
 156    -0.2294913740169176
 157    -0.0091864324250540
 158    -0.0006671687553548
 159    -0.0127797368099332
 160    -0.0076373525202939
 161    -0.0155293530283904
 162    -0.0162032686886520
 163     0.0449359790497043
 164    -0.0482302068455965
 165     0.1142222272708946
 166     0.0706916689448578
 167     0.0223044815529245
 168     0.0103913780986512
 169     0.0010475388299121
 170     0.0038895162201209
 171     0.0417946372360392
 172    -0.0457238760344617
 173    -0.0214433136297953
 174     0.1168201890250787
 175    -0.1519010658266237
 176    -0.0051302900428294
 177    -0.0161836113710577
 178     0.0013694906067534
 179     0.0147322001964300
 180    -0.0042728288138738
 181     0.0377447594071025
 182     0.0102376577931207
 183     0.1071860459751918
 184     0.0067874940701081
 Sym= 156A
 Ene= 0.645312
 Spin= Alpha
 Occup= 2.000000
  1    -0.0007541367799883
  2    -0.0060193313037433
  3    -0.0005025180606045
  4     0.0027081126631239
  5    -0.0012678273781363
  6    -0.0006352088081354
  7    -0.0139889609234651
  8     0.0275587429871837
  9    -0.0148535584321678
 10    -0.0005876598790201
 11    -0.0003436904664561
 12     0.0024955320012815
 13    -0.0065397306984564
 14    -0.0004587578285184
 15     0.0019225523176640
 16     0.0606626367724285
 17    -0.0090625694912557
 18    -0.0057830058452434
 19     0.0028667533606810
 20     0.0071164617124243
 21    -0.0045090303996385
 22     0.0032030861813665
 23     0.0060822274520508
 24     0.0100560066425227
 25    -0.0202248464201994
 26    -0.0309967826996303
 27     0.0393630618185969
 28    -0.0027712637578246
 29    -0.0005887193978811
 30     0.0023674089813071
 31    -0.0064992283522068
 32    -0.0024670423081966
 33    -0.0152857108459614
 34    -0.0424838919667780
 35     0.0137766861263719
 36     0.0134023845205659
 37     0.1503796360630416
 38     0.0331691485037636
 39    -0.1495061058245017
 40    -0.0409365843469228
 41    -0.1583164674577502
 42    -0.0571374624207509
 43     0.1616596043163382
 44     0.0647878271143087
 45    -0.1063574829089767
 46    -0.0602665006482347
 47     0.1123737077131748
 48     0.0598505077139379
 49     0.0883699344203792
 50     0.0632137700087755
 51    -0.0940261734767159
 52    -0.0651891821453452
 53    -0.0953057358992221
 54    -0.0654210121232928
 55     0.0924125032498866
 56     0.0648735565309017
 57     0.1124894493756464
 58     0.0602855687330317
 59    -0.1049471119437414
 60    -0.0599101636014674
 61     0.1578111696797959
 62     0.0631549252965882
 63    -0.1598404503138019
 64    -0.0581091271290445
 65    -0.1510334293056343
 66    -0.0417706518234604
 67     0.1468721445497187
 68     0.0312476442079740
 69    -0.0057184818594592
 70     0.2027968009036964
 71    -0.0104139877592230
 72     0.0018871985508111
 73     0.0006773130536673
 74     0.0157601641084211
 75    -0.0184433980488560
 76    -0.0021854610291070
 77     0.1373508794167477
 78    -0.0804176662729943
 79     0.0340231019190014
 80    -0.0401556153826543
 81    -0.1466907335961377
 82    -0.0843428407689616
 83     0.0411324026925331
 84     0.0368922357421451
 85     0.0069348550793453
 86    -0.0920476102021483
 87     0.0494231073724327
 88     0.0684935724992970
 89    -0.0070918177672780
 90    -0.0927986470921750
 91     0.0432655305233985
 92    -0.0826571715805054
 93     0.0015915625842242
 94    -0.0668320920863291
 95     0.0102794831712242
 96     0.0009441950098500
 97    -0.0061177230474655
 98     0.1657331325230452
 99    -0.0046615604168328
 100    -0.0039211826071480
 101    -0.2658276705196320
 102    -0.0096673373343660
 103     0.0031820349332653
 104    -0.0884245333675057
 105     0.2744081538795666
 106    -0.0049272406899034
 107     0.0000164839465683
 108     0.0830752369053166
 109     0.2736272600275543
 110     0.0075582125161532
 111    -0.0001223036839956
 112    -0.0838774563939347
 113    -0.2684185552401681
 114     0.0115137345241399
 115     0.0028997830390051
 116     0.0863124216396036
 117    -0.0039080795779125
 118    -0.1645611262864627
 119    -0.0041989718322248
 120     0.0024945975517378
 121     0.0027996691693125
 122     0.0662702234322635
 123     0.0099789650633612
 124    -0.0006052238538042
 125    -0.0073507707650458
 126     0.0925312412979576
 127     0.0429522828991713
 128     0.0834720251414748
 129     0.0053988065282422
 130     0.0916592992442155
 131     0.0490231348406372
 132    -0.0686552488272527
 133    -0.1431181191921194
 134     0.0839232088492005
 135     0.0407435243607676
 136    -0.0339590276167035
 137     0.1404950057680363
 138     0.0794213268903282
 139     0.0336414051447516
 140     0.0409189614425040
 141    -0.0030084994580720
 142    -0.0157471405308443
 143    -0.0186422580089383
 144     0.0044858598569390
 145    -0.0055600384584322
 146    -0.2012246218488280
 147    -0.0076142044487900
 148    -0.0001429328518341
 149     0.0025720876492004
 150    -0.0013802170983986
 151     0.0022602560334688
 152     0.0064645827438326
 153    -0.0023694734452081
 154    -0.0119646158814782
 155     0.0410439641261282
 156     0.0198107869871847
 157    -0.0126848495748238
 158     0.0007779626054054
 159    -0.0056956946027655
 160    -0.0003404806549048
 161    -0.0022717109424641
 162    -0.0008669761993089
 163    -0.0020756904433053
 164     0.0155000381974992
 165     0.0244834332033122
 166     0.0130892392220834
 167    -0.0000083189088063
 168    -0.0006036973683415
 169     0.0024809633270266
 170     0.0064220710606472
 171    -0.0016786221168808
 172     0.0029260186908161
 173    -0.0601224998126176
 174    -0.0123151859744110
 175     0.0102131121459366
 176    -0.0027175837077844
 177     0.0075657384671595
 178    -0.0044995250134065
 179    -0.0036198267533661
 180     0.0061378530755902
 181     0.0088665128171599
 182     0.0199205069037228
 183    -0.0339116933021583
 184    -0.0393550832120021
 Sym= 157A
 Ene= 0.677797
 Spin= Alpha
 Occup= 2.000000
  1     0.0014345017728234
  2     0.0078739254258386
  3     0.0007498198550317
  4    -0.0011957757342574
  5    -0.0007102601039870
  6     0.0188208840971616
  7     0.0402903669619259
  8    -0.0193070308916658
  9     0.0111272544569018
 10    -0.0021263371937839
 11     0.0012553069788351
 12    -0.0025612561383897
 13     0.0051779643892317
 14     0.0052482409199140
 15    -0.0063101223518941
 16    -0.0636264914882822
 17     0.0179944888688678
 18     0.0162895598644174
 19    -0.0007510249843226
 20    -0.0117401839226516
 21     0.0020636471085445
 22    -0.0053827475742444
 23    -0.0025791018878649
 24    -0.0070888058195304
 25     0.0332967408505411
 26     0.0467622050255722
 27    -0.0228678432936483
 28     0.0020075841953270
 29    -0.0001388459314071
 30     0.0009102411498699
 31     0.0117823280381663
 32    -0.0000730640078326
 33    -0.0068060484163723
 34     0.0294011993703175
 35    -0.0261551245170146
 36     0.0026437882914342
 37    -0.1857216993664686
 38    -0.0540096308195159
 39     0.2391807891135720
 40     0.0828847685869492
 41     0.0393062199273537
 42    -0.0013851120357737
 43    -0.0570042758567332
 44    -0.0109990043186608
 45     0.1688435453176325
 46     0.0838319548834063
 47    -0.1796681330851662
 48    -0.0857201894369358
 49    -0.0455606823652117
 50    -0.0423008968126550
 51     0.0456692327600234
 52     0.0426135014529336
 53    -0.0468668419632408
 54    -0.0430288600103674
 55     0.0433491226912556
 56     0.0416074318226998
 57     0.1806720761156442
 58     0.0859508630852499
 59    -0.1698812615775897
 60    -0.0843789159980233
 61     0.0558361377303470
 62     0.0101786686923211
 63    -0.0415070325052633
 64     0.0001650707047817
 65    -0.2431581488949943
 66    -0.0848164037459172
 67     0.1838845551234023
 68     0.0525352682138155
 69    -0.0242421596163565
 70    -0.3089467886960516
 71    -0.0005256777450489
 72     0.0050982679018768
 73     0.0159325012884304
 74     0.0626991042124708
 75    -0.0037828881916613
 76     0.0075431947222496
 77     0.0820612501760551
 78     0.0222847739090797
 79    -0.0039311807849115
 80     0.1237235191285008
 81    -0.0683381729007820
 82     0.0490732778152209
 83    -0.0295922224140596
 84    -0.1104911135174816
 85    -0.2409112169765921
 86     0.0772012960751892
 87    -0.0369927822937137
 88     0.0117056566505850
 89     0.2297202569575302
 90     0.0843311918805564
 91    -0.0403756830020053
 92     0.0120513825520749
 93    -0.0024308176967014
 94    -0.0886257151260978
 95     0.0436363889181029
 96    -0.0169425045468906
 97     0.0102717326006699
 98    -0.0554495760052283
 99    -0.0104734945742154
 100    -0.0027671951333672
 101     0.0472208087668875
 102     0.0159802821113623
 103     0.0020745405331880
 104    -0.0566406962534180
 105    -0.0668146135011623
 106     0.0127138122062228
 107     0.0029548036670269
 108     0.0387564649666958
 109     0.0649793910157931
 110     0.0157749979729365
 111    -0.0029615333148791
 112     0.0382714348293279
 113    -0.0477132989160963
 114     0.0123257603227228
 115    -0.0020975920133867
 116    -0.0570645145945901
 117    -0.0058692830711098
 118    -0.0551827640156897
 119     0.0106803280404848
 120    -0.0062145842581150
 121     0.0049041784239616
 122    -0.0883691084384150
 123    -0.0435395897650437
 124    -0.0148059389166406
 125    -0.2330169829976000
 126     0.0840056700568107
 127     0.0405142092725115
 128     0.0103101924444205
 129     0.2388931066413056
 130     0.0794197104480707
 131     0.0377637437156625
 132     0.0104035809485364
 133     0.0704176564142121
 134     0.0477789779506563
 135     0.0291765093287321
 136    -0.1124719499758066
 137    -0.0801253443639759
 138     0.0244298740946861
 139     0.0048012479472288
 140     0.1228064939354750
 141    -0.0152453946061932
 142     0.0631274226719088
 143     0.0036815669167197
 144     0.0064904723245664
 145     0.0275000576608990
 146    -0.3106025853149461
 147     0.0012313738947255
 148     0.0071052723977722
 149     0.0018345727281484
 150    -0.0001657052047919
 151    -0.0009452004343361
 152     0.0118821355880828
 153     0.0002106260165315
 154     0.0076501201589306
 155     0.0288588874817678
 156     0.0274884022885950
 157     0.0031135693712144
 158     0.0014381002904951
 159    -0.0079214295237615
 160    -0.0007273299453522
 161    -0.0011018833207667
 162     0.0008373626854419
 163    -0.0195074942390461
 164     0.0413385710798628
 165     0.0188514826242885
 166     0.0106776837311192
 167    -0.0022399426584405
 168    -0.0013017935241995
 169     0.0025765400375941
 170     0.0051493092997991
 171    -0.0056184606774625
 172     0.0063792685868606
 173    -0.0639293542682661
 174    -0.0189118924469085
 175     0.0174884647065905
 176    -0.0006970654800618
 177     0.0119726876801990
 178    -0.0020228455353671
 179    -0.0055236054648643
 180     0.0025176488715724
 181     0.0068830317445415
 182     0.0337657274553091
 183    -0.0477190765126826
 184    -0.0226914424962087
 Sym= 158A
 Ene= 0.690874
 Spin= Alpha
 Occup= 2.000000
  1     0.0020421077900444
  2     0.0044973674701031
  3     0.0022200579191422
  4     0.0002241311952090
  5     0.0009422898506997
  6     0.0209445569798122
  7     0.0306619725692016
  8    -0.0074023341175100
  9     0.0175640238000217
 10    -0.0016652840577402
 11     0.0013026762912200
 12    -0.0015535908785921
 13     0.0033032305359513
 14     0.0050875964760299
 15    -0.0091638918800736
 16    -0.0409673395768279
 17     0.0146277190087604
 18     0.0055905359510190
 19     0.0004387487567231
 20    -0.0080468137059853
 21    -0.0001975141388853
 22    -0.0043323729555985
 23    -0.0006197149726775
 24     0.0026346432544698
 25     0.0164975756355359
 26     0.0338085055431213
 27    -0.0071244373423422
 28    -0.0024416105731073
 29    -0.0039194761336203
 30     0.0010391713657092
 31     0.0089692283884351
 32    -0.0037398517943677
 33    -0.0136871831565838
 34     0.0223869360988823
 35    -0.0077215087297740
 36     0.0142204307533894
 37    -0.0877675601641604
 38    -0.0313728970745438
 39     0.2083010276553143
 40     0.0777757949613168
 41    -0.0940871499431026
 42    -0.0469871577650122
 43    -0.0319465729540180
 44     0.0028740719941045
 45     0.0717917228131850
 46     0.0190219667402272
 47    -0.1541638868535341
 48    -0.0690669197684454
 49    -0.0312971966073079
 50    -0.0273564542867046
 51    -0.1299734410233317
 52    -0.0414479832070630
 53    -0.1307474536916930
 54    -0.0418159806713722
 55    -0.0314730536657840
 56    -0.0273922145623673
 57    -0.1542335667999923
 58    -0.0692481000294061
 59     0.0719519826882142
 60     0.0190021375150262
 61    -0.0324105591645439
 62     0.0031515198362206
 63    -0.0953372042041021
 64    -0.0471474633976255
 65     0.2118265261087506
 66     0.0795031802028785
 67    -0.0851276995692396
 68    -0.0300896899975381
 69    -0.0382216248374755
 70    -0.2288694538064595
 71    -0.0236035860309822
 72     0.0665076595438184
 73     0.0509821325838008
 74     0.0777901972624136
 75    -0.0078008599041242
 76     0.0917648565701063
 77     0.1704742517057529
 78    -0.0813432362262698
 79     0.0387593017967365
 80     0.1113541220384640
 81    -0.1105002898930417
 82     0.0686180042261852
 83    -0.0345948033953612
 84    -0.0539822123344796
 85    -0.2333542193230036
 86    -0.0114548279503333
 87     0.0097926382784280
 88     0.0903478293217531
 89     0.1476268011781323
 90     0.1144244520966546
 91    -0.0510691040035624
 92    -0.0102710203771755
 93     0.0819443062093486
 94    -0.0731493039824919
 95     0.0199840112131056
 96    -0.0695041072923813
 97     0.1221040498774868
 98     0.0789462547157558
 99    -0.0039772758834709
 100     0.1016692409111718
 101    -0.1475680796365998
 102     0.1166436092847014
 103     0.0049581123405140
 104    -0.0603603845753056
 105     0.1235145147758690
 106    -0.1124044810254053
 107    -0.0014147901013159
 108     0.0551469636673286
 109     0.1254172282159609
 110     0.1125756199259060
 111    -0.0017689936467002
 112    -0.0550335154325184
 113    -0.1478752884067734
 114    -0.1178259528828516
 115     0.0051890906145669
 116     0.0587457094318573
 117     0.1221193626199508
 118    -0.0809401596572939
 119    -0.0039644079028729
 120    -0.1022942747613360
 121     0.0826106402457208
 122     0.0731614434643430
 123     0.0197576368810466
 124     0.0689502854226458
 125     0.1489600480930315
 126    -0.1147627201501171
 127    -0.0512802398523194
 128     0.0125089927366070
 129    -0.2338801903578026
 130     0.0111000242053709
 131     0.0098322447046631
 132    -0.0911251028394248
 133    -0.1117662142925119
 134    -0.0687316790248714
 135    -0.0347496047089671
 136     0.0559673932782898
 137     0.1723280663806608
 138     0.0813408194144432
 139     0.0387814718644400
 140    -0.1113556676154913
 141     0.0504486541796627
 142    -0.0786320434513322
 143    -0.0076524966696905
 144    -0.0915472609605283
 145    -0.0419782542221635
 146     0.2299178182994548
 147    -0.0242524786201801
 148    -0.0690124414358761
 149     0.0026618562770064
 150    -0.0038915127990138
 151     0.0010328753791093
 152    -0.0090832670007550
 153    -0.0039101911223748
 154    -0.0139163339371966
 155    -0.0222155270560873
 156    -0.0073437632994881
 157    -0.0146999975086299
 158    -0.0020676302754332
 159     0.0045504566562075
 160     0.0022711375552113
 161    -0.0002402315688978
 162     0.0009547898520200
 163     0.0213147603249214
 164    -0.0311276006646208
 165    -0.0074334841239409
 166    -0.0177647455115063
 167     0.0016422200688442
 168     0.0012961041123278
 169    -0.0015454855593777
 170    -0.0032856123094138
 171     0.0051654579080015
 172    -0.0091320327374344
 173     0.0410628577829210
 174     0.0146840620104297
 175    -0.0054342340316694
 176    -0.0004823889153071
 177    -0.0081082442480763
 178    -0.0002694384140878
 179     0.0043594880986660
 180    -0.0005300842082404
 181     0.0027508335202768
 182    -0.0166729936990000
 183     0.0339004273658468
 184     0.0067260488975469
 Sym= 159A
 Ene= 0.697613
 Spin= Alpha
 Occup= 2.000000
  1    -0.0002996301385648
  2     0.0060994412097020
  3    -0.0011681031725419
  4    -0.0010479977821049
  5    -0.0031936477465759
  6     0.0116241992910916
  7     0.0320908274413921
  8    -0.0104529099684252
  9    -0.0098139072767322
 10    -0.0021437289073499
 11    -0.0000897788143410
 12    -0.0009498900007823
 13     0.0001540739521203
 14     0.0019711300184369
 15     0.0050253642146358
 16    -0.0222722560436021
 17     0.0024131995059965
 18     0.0151451734201504
 19     0.0006015962999089
 20    -0.0068169201601403
 21    -0.0001387741805015
 22    -0.0017767409711121
 23     0.0022068557353298
 24    -0.0115182091160046
 25     0.0322531004387318
 26     0.0188808895201262
 27     0.0012529683566650
 28     0.0056656689722140
 29     0.0033978949817240
 30     0.0022425180552992
 31     0.0062067076044822
 32     0.0023551207925611
 33    -0.0082845435999337
 34    -0.0081868839720100
 35    -0.0203248419731093
 36     0.0034666527829445
 37    -0.1323136144372567
 38    -0.0366443991153526
 39     0.0798347113688459
 40     0.0310681447909254
 41     0.0721423468849538
 42     0.0152847001182997
 43     0.1078076253326395
 44     0.0443497814177836
 45     0.1580160479788862
 46     0.0757139204631638
 47    -0.0247525320855968
 48     0.0034144992293702
 49     0.1588486214487290
 50     0.0571518038039997
 51     0.0891143277293736
 52     0.0499953944631276
 53     0.0878684762519952
 54     0.0490063423950089
 55     0.1621915753003414
 56     0.0585988657472902
 57    -0.0225104280400082
 58     0.0046273246626784
 59     0.1558584548708119
 60     0.0743788048223552
 61     0.1096989012505440
 62     0.0451228617739353
 63     0.0752523966968273
 64     0.0170200646568625
 65     0.0787729332885632
 66     0.0310393750408526
 67    -0.1294799178829460
 68    -0.0351909013204911
 69    -0.0215317379414707
 70    -0.1484597425045934
 71     0.0247908189024930
 72    -0.0926899581113683
 73    -0.0552102719073794
 74     0.0510180244006806
 75    -0.0191313638346002
 76    -0.1478693313605153
 77     0.0528474704205955
 78     0.1014675170326915
 79    -0.0398642915702957
 80     0.0259235928812835
 81    -0.1349332358615291
 82    -0.1071125971167214
 83     0.0403377321171938
 84    -0.1044083647414710
 85    -0.0814824532443487
 86     0.1459658065734659
 87    -0.0655334948542220
 88    -0.0203463401341981
 89     0.2026976399088841
 90    -0.0583012779711320
 91     0.0221958118799765
 92    -0.0855120640523515
 93    -0.1382626429863182
 94    -0.0546742076592907
 95     0.0230810094436704
 96     0.0929760364748796
 97    -0.1776051066787365
 98     0.0523389985309205
 99    -0.0085118632940521
 100    -0.1682889184102796
 101    -0.0779933952524187
 102    -0.1764374594199067
 103    -0.0052784523239148
 104    -0.0339640318832631
 105     0.1115901417670215
 106     0.1790665092264641
 107     0.0033539941619923
 108     0.0410207477649815
 109     0.1136260448011351
 110    -0.1774561899233855
 111     0.0037279186186782
 112    -0.0431288993779780
 113    -0.0781207076573604
 114     0.1785073136338379
 115    -0.0058564323825268
 116     0.0301782506177172
 117    -0.1775134018148070
 118    -0.0516166960197697
 119    -0.0078004078023633
 120     0.1674401564657409
 121    -0.1381180994089576
 122     0.0524583315375312
 123     0.0221590371757695
 124    -0.0954885404244612
 125     0.2011407230781831
 126     0.0592927257077406
 127     0.0222802609997812
 128     0.0875823783550449
 129    -0.0743681107424371
 130    -0.1454243238022992
 131    -0.0652265514867190
 132     0.0239659181867729
 133    -0.1348784446985933
 134     0.1100814094670961
 135     0.0412911732493980
 136     0.1049301009464483
 137     0.0470016632278767
 138    -0.1043802613894003
 139    -0.0412029868709586
 140    -0.0217431548766811
 141    -0.0576424888658081
 142    -0.0493331867926194
 143    -0.0187784419087085
 144     0.1485257640979139
 145    -0.0220375287048765
 146     0.1455954987936645
 147     0.0242676767650536
 148     0.0911892506824878
 149    -0.0055839268939936
 150     0.0035675103733209
 151     0.0022496333375477
 152    -0.0060628730711996
 153     0.0023398238900198
 154    -0.0081028741382028
 155     0.0084834057248308
 156    -0.0208362442902670
 157    -0.0032281593261492
 158     0.0003372506071945
 159     0.0060213513258628
 160    -0.0012221486692144
 161     0.0010016941442472
 162    -0.0032655785225463
 163     0.0115322386751685
 164    -0.0319155976086607
 165    -0.0101184747494746
 166     0.0102705300320831
 167     0.0021343356468770
 168    -0.0000737970766186
 169    -0.0009495005055562
 170    -0.0001155602687991
 171     0.0020662203726742
 172     0.0050135551297948
 173     0.0218926692792713
 174     0.0028284644128155
 175    -0.0155917753186792
 176    -0.0005876090713267
 177    -0.0067942754284773
 178    -0.0001102119732501
 179     0.0017865573285182
 180     0.0021682642488572
 181    -0.0114507719117096
 182    -0.0320844309462828
 183     0.0188530085323046
 184    -0.0011020896194506
 Sym= 160A
 Ene= 0.719347
 Spin= Alpha
 Occup= 2.000000
  1     0.0037144195535784
  2    -0.0012348775377957
  3     0.0067936565308340
  4     0.0006035578104643
  5     0.0073388699282882
  6     0.0147134739274429
  7    -0.0015879305198368
  8    -0.0026340053705064
  9     0.0440811858781926
 10     0.0036338371281064
 11     0.0000337694371788
 12     0.0001397563700879
 13     0.0013822198678089
 14    -0.0014522128426628
 15    -0.0111023949082405
 16    -0.0021376213672111
 17    -0.0086517844837551
 18    -0.0501271932605235
 19     0.0025216988291521
 20     0.0022635660099625
 21    -0.0051805142240950
 22    -0.0004392914109895
 23     0.0030805960709188
 24     0.0232276179831707
 25    -0.0224375517218694
 26    -0.0051562911088052
 27     0.0270398327753448
 28    -0.0129662654013509
 29    -0.0174908935490732
 30    -0.0004312563541701
 31    -0.0000824292909971
 32    -0.0122093875452022
 33    -0.0040444565754011
 34     0.0148894629764299
 35     0.0705922889081092
 36     0.0384227102752953
 37     0.1877497186077187
 38     0.0725756404693521
 39     0.1794389450763023
 40     0.0807955286601666
 41    -0.1537759632091804
 42    -0.0437950094673850
 43    -0.1177710560924632
 44    -0.0266989124390430
 45    -0.1489727815855703
 46    -0.0552380297517953
 47    -0.0917882792682239
 48    -0.0273330628158818
 49     0.0362499621109046
 50     0.0076755614710665
 51     0.0026181138805437
 52    -0.0128537926369352
 53    -0.0039735697775902
 54     0.0122775483425322
 55    -0.0369854335482577
 56    -0.0082850208543945
 57     0.0889480972683321
 58     0.0262432974498325
 59     0.1480790612309104
 60     0.0548236891347562
 61     0.1186890325288779
 62     0.0265610136260014
 63     0.1539745173372813
 64     0.0433077586802251
 65    -0.1815540062351563
 66    -0.0820301714030091
 67    -0.1928118643568819
 68    -0.0746720271575612
 69    -0.1738453189269068
 70    -0.0190046050113722
 71    -0.1088821471324098
 72     0.2032286198328101
 73     0.0862681864492770
 74     0.0236896203202095
 75     0.0256647313086833
 76     0.1979624892651457
 77     0.0501874391661102
 78    -0.1607812167710511
 79     0.0603448590645815
 80    -0.0119767449864829
 81     0.0150129595246472
 82     0.1479418977007907
 83    -0.0637534071786886
 84     0.0382310645231876
 85     0.0181639133174026
 86    -0.1334452658554920
 87     0.0674628514132063
 88     0.0702941220207236
 89    -0.0503917255426228
 90     0.1140454579560504
 91    -0.0510813739485089
 92     0.0427765193090758
 93     0.0746165106234336
 94     0.0234116393057048
 95    -0.0213564083921720
 96    -0.1709989859435113
 97     0.0494099060669908
 98     0.0205944741982432
 99    -0.0005077661729695
 100    -0.0287630041421473
 101    -0.1302827681697606
 102    -0.0125685473981533
 103     0.0000647655584624
 104    -0.0955238093861536
 105    -0.0893437192166591
 106     0.0013978348255502
 107    -0.0008416163330914
 108    -0.1271292688174352
 109     0.0889098830059088
 110     0.0035651677062911
 111     0.0007010417700108
 112    -0.1269700216693366
 113     0.1298004910666279
 114    -0.0142207796472223
 115    -0.0000559846537295
 116    -0.0957276946773205
 117    -0.0476334759961953
 118     0.0206339526837684
 119     0.0005213130078897
 120    -0.0311064378064151
 121    -0.0728115068011358
 122     0.0231156290361298
 123     0.0211387829357637
 124    -0.1703146010366457
 125     0.0503446945403867
 126     0.1114490545523207
 127     0.0497527297275661
 128     0.0406911257816822
 129    -0.0181057518752542
 130    -0.1324896661977253
 131    -0.0668588663144317
 132     0.0703132189311737
 133    -0.0150560439585814
 134     0.1482727119305668
 135     0.0637479208238136
 136     0.0366691104264561
 137    -0.0515940337076406
 138    -0.1595516815860584
 139    -0.0596197486318504
 140    -0.0121722276884554
 141    -0.0857720008556664
 142     0.0247366537726698
 143    -0.0260162263297591
 144     0.1947752153844863
 145     0.1806906579379134
 146    -0.0175522295689652
 147     0.1102499346332326
 148     0.2039410132376075
 149    -0.0131919605323598
 150     0.0179610682589842
 151     0.0004741060484687
 152     0.0000597761134337
 153     0.0124733129929619
 154     0.0040443625241938
 155     0.0148651747561071
 156    -0.0736819704589299
 157     0.0397207196918872
 158     0.0038157395904414
 159     0.0011878230003088
 160    -0.0070103646932178
 161     0.0005178028360289
 162    -0.0076063521573456
 163    -0.0148000217318706
 164    -0.0018875791532853
 165     0.0032111018363851
 166     0.0454386351250092
 167     0.0037835926431138
 168     0.0000673970071265
 169    -0.0002132804458258
 170     0.0013536603996725
 171     0.0017778705240832
 172     0.0107489046764624
 173    -0.0016054278993878
 174     0.0101884082277386
 175    -0.0523636646892564
 176     0.0026283978819091
 177    -0.0024898723821376
 178     0.0054017354715441
 179    -0.0002890701243401
 180    -0.0033325634788499
 181    -0.0235018000307558
 182    -0.0228710545821670
 183     0.0063974655493501
 184     0.0284471772193037
 Sym= 161A
 Ene= 0.730991
 Spin= Alpha
 Occup= 2.000000
  1    -0.0048478801104151
  2    -0.0023660102823994
  3    -0.0093834752180990
  4     0.0005836317404388
  5    -0.0085558320380741
  6    -0.0261411060627278
  7    -0.0152700129889978
  8     0.0127314922238445
  9    -0.0542158158654364
 10    -0.0052736641917901
 11     0.0014112362423208
 12    -0.0003830455350012
 13     0.0005172756086561
 14     0.0045730709310561
 15     0.0038475309534721
 16    -0.0034714896959905
 17     0.0281907350628847
 18     0.0788180317087061
 19    -0.0053661859392259
 20    -0.0020969214844246
 21     0.0099896133645783
 22    -0.0008346260108941
 23    -0.0099220763232996
 24    -0.0244136846745468
 25     0.0109470275916310
 26     0.0153730451102282
 27    -0.0603172717315155
 28     0.0142944758683029
 29     0.0249540835963107
 30    -0.0010439443920309
 31     0.0003830370984154
 32     0.0167516511409763
 33     0.0071478870433306
 34     0.0049502266154869
 35    -0.1127181544540923
 36    -0.0670867003023783
 37    -0.2645475957674348
 38    -0.1244109152203083
 39    -0.2644116565949192
 40    -0.1269906505640818
 41     0.0428462276074970
 42    -0.0128242449777135
 43     0.0287536872898543
 44    -0.0192897252044414
 45     0.0625269237811810
 46     0.0215078118646394
 47     0.0069696394877576
 48     0.0000156637637951
 49    -0.0525585284218215
 50    -0.0188113955198311
 51    -0.0719824861054091
 52    -0.0203300455523772
 53    -0.0694509114034165
 54    -0.0190178662670281
 55    -0.0528398382050438
 56    -0.0192334850691576
 57    -0.0018174722715002
 58    -0.0025656377279907
 59     0.0590098835442552
 60     0.0215559960251617
 61     0.0214671146121422
 62    -0.0246624485063663
 63     0.0373273647598490
 64    -0.0175892528313412
 65    -0.2803056108832908
 66    -0.1354283955953954
 67    -0.2834093587120124
 68    -0.1338230157125287
 69     0.3422690163800471
 70     0.0237125426827219
 71     0.1579713480113410
 72    -0.1940804703844292
 73     0.0055284197332355
 74    -0.0277343741760361
 75    -0.0360594810661896
 76    -0.0410747091648941
 77     0.0443349923942428
 78     0.0199623271329493
 79     0.0053634425597616
 80     0.1026173642140823
 81     0.0434947836076823
 82    -0.0196568947819136
 83     0.0147245424413201
 84     0.0391647401083944
 85    -0.1044058249010591
 86     0.0473619404979791
 87    -0.0201061954914825
 88     0.0610927613283906
 89    -0.0169974201245817
 90    -0.0282807988364185
 91     0.0141025153857233
 92     0.0588505203293743
 93    -0.0084646759375533
 94    -0.0232576470013493
 95     0.0126711841758307
 96     0.0425825853778398
 97     0.0398891583940687
 98     0.0102629903944886
 99     0.0001956971630064
 100     0.0843036074692791
 101    -0.0122617961197488
 102     0.0695094246899256
 103     0.0038009158986178
 104    -0.0160847910799951
 105     0.0334293466159817
 106    -0.0753528373452793
 107    -0.0021460374388780
 108     0.0100603103531222
 109     0.0209303125826645
 110     0.0729132526385141
 111    -0.0023281533233942
 112     0.0025052092789651
 113    -0.0219826406145081
 114    -0.0679724150845144
 115     0.0042010025011085
 116     0.0307118010264064
 117     0.0408295475242760
 118    -0.0092394794026104
 119    -0.0003991854014277
 120    -0.0823664783765519
 121    -0.0080395318154871
 122     0.0253127259743381
 123     0.0131854714677008
 124    -0.0323276914587599
 125    -0.0212722335168321
 126     0.0228748075462727
 127     0.0118318724570409
 128    -0.0728228934852295
 129    -0.1152460449648297
 130    -0.0442057750122602
 131    -0.0178188841078676
 132    -0.0725108475546629
 133     0.0523323821748581
 134     0.0092980658905120
 135     0.0110686131131600
 136    -0.0472528900987897
 137     0.0513380014634889
 138    -0.0096142185277281
 139     0.0108156113722388
 140    -0.1140923238581395
 141     0.0136095251357190
 142     0.0303772269702355
 143    -0.0379453730680175
 144     0.0299015229249344
 145     0.3701851896542105
 146    -0.0235303235057454
 147     0.1676010991809230
 148     0.2015797897912659
 149    -0.0151249281173542
 150     0.0267443204388184
 151    -0.0011333403167604
 152    -0.0001523804985806
 153     0.0178911106720882
 154     0.0075980200339145
 155    -0.0059115860081011
 156    -0.1221770662314897
 157     0.0724538813403456
 158     0.0051979024868384
 159    -0.0026745384751174
 160    -0.0101007825833673
 161    -0.0007511942362228
 162    -0.0092368282284106
 163    -0.0277990782592922
 164     0.0163056305793763
 165     0.0142674274095707
 166     0.0582667644585305
 167     0.0056927377430613
 168     0.0016447975681349
 169    -0.0005043345245117
 170    -0.0006507632420658
 171     0.0052266687222005
 172     0.0031799751982639
 173     0.0044325001291543
 174     0.0318338182510855
 175    -0.0853987212048978
 176     0.0058138387505696
 177    -0.0024139255889874
 178     0.0108249495776558
 179     0.0010896698418844
 180    -0.0108819223134485
 181    -0.0256651375387409
 182    -0.0113038448372231
 183     0.0177828568464527
 184     0.0655597411504060
 Sym= 162A
 Ene= 0.736412
 Spin= Alpha
 Occup= 2.000000
  1     0.0041184995796548
  2     0.0048165600265518
  3     0.0080975075059055
  4    -0.0010549183189376
  5     0.0061587626986302
  6     0.0292770010102657
  7     0.0279860471264617
  8    -0.0147808334473153
  9     0.0427895194695313
 10     0.0039465775627405
 11    -0.0018434828332182
 12     0.0003344933878938
 13    -0.0018624803680180
 14    -0.0042564761316163
 15     0.0028490486463704
 16     0.0039559076917441
 17    -0.0309187811810462
 18    -0.0679696395751665
 19     0.0057379071035595
 20     0.0001247567058144
 21    -0.0101645753293665
 22     0.0010277215212309
 23     0.0118648850429742
 24     0.0159223571898367
 25     0.0050341956847423
 26    -0.0138540422690501
 27     0.0638478905526868
 28    -0.0100099289991648
 29    -0.0214133783922921
 30     0.0020193367760850
 31     0.0006389062463188
 32    -0.0145046042064311
 33    -0.0112642273190589
 34    -0.0176433275469493
 35     0.0998676061208845
 36     0.0672728575661223
 37     0.2108605199440765
 38     0.1105738394623063
 39     0.2486855630773475
 40     0.1220323840691728
 41     0.0319100709632377
 42     0.0403926232391770
 43     0.0736386185803687
 44     0.0592853940890215
 45     0.0406773922997107
 46     0.0014628942131242
 47     0.0578676609884136
 48     0.0137713328191834
 49     0.0051914040952031
 50     0.0018880938410959
 51    -0.0292955383013914
 52    -0.0150373983743008
 53     0.0359857744945070
 54     0.0172737843553363
 55     0.0003442769865514
 56     0.0000440298879713
 57    -0.0593699062854867
 58    -0.0140968461134022
 59    -0.0425199591817078
 60    -0.0018595102440546
 61    -0.0754815282223557
 62    -0.0571013968147281
 63    -0.0364672660206341
 64    -0.0396433500541183
 65    -0.2196897558684688
 66    -0.1085709733549234
 67    -0.1877236223120203
 68    -0.0990613779594727
 69    -0.3415202730083374
 70    -0.0443916645512479
 71    -0.1358893223690917
 72     0.1192587778713078
 73    -0.0769605675534037
 74     0.0401146236831678
 75     0.0242393719060730
 76    -0.0896505116410297
 77    -0.0580835180225787
 78     0.0854622989231756
 79    -0.0485911029768795
 80    -0.1267111572730610
 81    -0.1096886487396187
 82    -0.0998020248472903
 83     0.0338191261141388
 84    -0.0846517791893347
 85     0.1012699820564252
 86     0.0339785321341857
 87    -0.0220466479770668
 88    -0.1184243777764057
 89     0.0622672666463572
 90    -0.0242158982263216
 91     0.0099461793015664
 92    -0.1410513807618644
 93     0.0022719591286764
 94     0.0203735357172171
 95    -0.0080227475286326
 96     0.0833900613396294
 97     0.0006359339169534
 98     0.0220872886207655
 99     0.0050407408803413
 100     0.0109890426407338
 101     0.0931079380627632
 102     0.0226250745567046
 103    -0.0027896369630946
 104     0.1564113589853089
 105     0.1356657867820596
 106    -0.0260407803723612
 107    -0.0002495828051791
 108     0.1252911083572162
 109    -0.1359274476888934
 110    -0.0345389556823346
 111     0.0006145972040108
 112     0.1245688897422343
 113    -0.0926820073892535
 114     0.0297797189291057
 115     0.0025237109835541
 116     0.1553477741149708
 117    -0.0048422367682517
 118     0.0220313892788501
 119    -0.0052009867516427
 120     0.0213945997046778
 121    -0.0040635265914749
 122     0.0194804010895223
 123     0.0072313010579017
 124     0.0874597933333929
 125    -0.0582250552801425
 126    -0.0266171776633627
 127    -0.0109639946039015
 128    -0.1357688305072535
 129    -0.0951392682889571
 130     0.0350622057273563
 131     0.0225196841569651
 132    -0.1132447850020429
 133     0.1043290719261030
 134    -0.1011649052770860
 135    -0.0348144618342291
 136    -0.0804919902758530
 137     0.0567229720382708
 138     0.0872138405676176
 139     0.0480807470867846
 140    -0.1184161508676203
 141     0.0765728929535475
 142     0.0361536732442556
 143    -0.0210003100842329
 144    -0.0916328596400439
 145     0.3069490676974496
 146    -0.0385404277586284
 147     0.1199803572095797
 148     0.1017234409440487
 149    -0.0087615753786354
 150     0.0190519590800494
 151    -0.0018365218104358
 152     0.0007704795412252
 153     0.0128763805184608
 154     0.0098922707533852
 155    -0.0162244948908829
 156    -0.0898126013642980
 157     0.0602981567043723
 158     0.0036587495917605
 159    -0.0044150382448035
 160    -0.0072280609871725
 161    -0.0010291444018000
 162    -0.0055002405342589
 163    -0.0259871847612060
 164     0.0250459561472198
 165     0.0136237054467205
 166     0.0380951987407379
 167     0.0035458774322941
 168     0.0017359280858720
 169    -0.0003610471039238
 170    -0.0017385573034377
 171     0.0040047061003599
 172    -0.0032567554034815
 173     0.0039949933679122
 174     0.0286174441833402
 175    -0.0610792467068786
 176     0.0051536570066478
 177    -0.0001969363482643
 178     0.0091329505186325
 179     0.0010482728770664
 180    -0.0107523585390299
 181    -0.0137373411161065
 182     0.0049753997258045
 183     0.0132174810321725
 184     0.0574868957994954
 Sym= 163A
 Ene= 0.760832
 Spin= Alpha
 Occup= 2.000000
  1     0.0001283067317553
  2     0.0028209472642170
  3    -0.0003453877132429
  4     0.0006733800170982
  5    -0.0020182357395966
  6     0.0143192677539551
  7     0.0237000042126933
  8     0.0036464630217398
  9    -0.0050273323364032
 10    -0.0033173935657972
 11     0.0004140300635794
 12    -0.0003312907012152
 13    -0.0008775331901898
 14     0.0038222904731409
 15     0.0020058963216576
 16    -0.0081760775130163
 17     0.0065916041455234
 18     0.0223736001304107
 19     0.0005912582054387
 20    -0.0046176122970822
 21    -0.0003650239851683
 22    -0.0016435285114510
 23     0.0017710514679396
 24    -0.0056304720457454
 25     0.0178759524270627
 26     0.0142446424877897
 27     0.0006922843218213
 28     0.0032354816984180
 29     0.0036568169744347
 30     0.0015198363824731
 31     0.0048220447423645
 32     0.0007847524374032
 33    -0.0188544551513875
 34    -0.0032732139107148
 35    -0.0240773182591870
 36     0.0081199943808042
 37    -0.1030146773562934
 38    -0.0480166199224333
 39     0.0273629872150175
 40     0.0102882581142135
 41    -0.1388005262771342
 42    -0.0681737551004604
 43     0.1506311921435655
 44     0.0607032722189783
 45     0.0273490149059097
 46    -0.0052908571754070
 47    -0.0036742853963778
 48     0.0165869252582829
 49     0.1622265908287703
 50     0.0689345858249469
 51    -0.1639553027192615
 52    -0.0645748289646265
 53     0.1597677449788876
 54     0.0631802369552434
 55    -0.1591278022107666
 56    -0.0679240008873235
 57     0.0023376012677320
 58    -0.0166702097614791
 59    -0.0262845269575932
 60     0.0052830624851983
 61    -0.1506886871363333
 62    -0.0608943511599276
 63     0.1365174710628742
 64     0.0671181524166921
 65    -0.0287420276518538
 66    -0.0110603066436693
 67     0.1019928359123503
 68     0.0472830676658284
 69     0.0408790710538230
 70    -0.1027446987920719
 71     0.0325916939806657
 72    -0.0461657050541051
 73     0.0136138158955068
 74     0.1061701360557979
 75    -0.0446281932087823
 76    -0.0186964347488860
 77     0.2098691268469838
 78    -0.0743150591720287
 79     0.0337757093814694
 80     0.0008362794522452
 81    -0.1761250772854409
 82    -0.0750078890839841
 83     0.0350150207871108
 84     0.0493617828655695
 85    -0.0107622098133283
 86     0.0972535523247618
 87    -0.0298140450342453
 88     0.1512907143756162
 89    -0.0246488129367891
 90     0.0585071634680596
 91    -0.0269066674504778
 92    -0.1008808867044190
 93    -0.0192623287064868
 94     0.1191266974340487
 95    -0.0694842804385702
 96     0.0162128311861655
 97    -0.0100999807051756
 98     0.2279596806660373
 99     0.0143584116205188
 100    -0.0020679198142468
 101    -0.2151065995071672
 102    -0.0295736369364719
 103    -0.0068018331823863
 104     0.1357390039427232
 105     0.2012570105622244
 106    -0.0230413686132336
 107    -0.0098878853085257
 108    -0.1629925901668964
 109    -0.1989443502736542
 110    -0.0196361490599547
 111     0.0096025870956674
 112    -0.1613423824832523
 113     0.2144040464963814
 114    -0.0258463350814885
 115     0.0071116634981334
 116     0.1343281361250101
 117     0.0108092215842319
 118     0.2283934835207483
 119    -0.0149518499632881
 120     0.0003367756339713
 121     0.0172712081217722
 122     0.1184831518352651
 123     0.0691305247999812
 124     0.0182570225345514
 125     0.0234944156432554
 126     0.0577947628225527
 127     0.0264889943327725
 128    -0.1034979115675788
 129     0.0090741391585812
 130     0.0960580707073975
 131     0.0291473566698537
 132     0.1492442095584905
 133     0.1760840679275368
 134    -0.0768623382748831
 135    -0.0354351487733510
 136     0.0464405208462073
 137    -0.2083844858820693
 138    -0.0709016120308512
 139    -0.0322564111146197
 140    -0.0003105162342367
 141    -0.0107311509642555
 142     0.1056080527173559
 143     0.0443118421702647
 144    -0.0210574230303287
 145    -0.0390336432905432
 146    -0.1029578229644670
 147    -0.0321969528314685
 148    -0.0454270365643873
 149     0.0032019929093765
 150    -0.0037051426023544
 151    -0.0015201501754540
 152     0.0047901027412108
 153    -0.0008072653776548
 154     0.0181381219833708
 155    -0.0032954770091155
 156     0.0239380834582142
 157     0.0076253380087873
 158     0.0000968267518260
 159    -0.0028628069185273
 160     0.0003918963347778
 161     0.0006411939641922
 162     0.0020737366469045
 163    -0.0141406191428597
 164     0.0236881628848447
 165    -0.0033903544293883
 166    -0.0052631194578139
 167    -0.0032286690554399
 168    -0.0004040548229304
 169     0.0003502787857485
 170    -0.0008823974498411
 171    -0.0037543427544819
 172    -0.0020197686425710
 173    -0.0082857147200998
 174    -0.0065950919545986
 175     0.0220803973914181
 176     0.0005610432173492
 177     0.0046318587861786
 178     0.0003181904610574
 179    -0.0016219107601528
 180    -0.0017336269484772
 181     0.0059196370749345
 182     0.0181630686901608
 183    -0.0141029588696577
 184     0.0004564993284900
 Sym= 164A
 Ene= 0.782692
 Spin= Alpha
 Occup= 2.000000
  1    -0.0005244542324533
  2    -0.0011527911095151
  3    -0.0007485887266684
  4    -0.0013665682299508
  5     0.0009814747401819
  6    -0.0159652794044626
  7    -0.0195565737945770
  8    -0.0089180780226528
  9     0.0012817549538644
 10     0.0030785834880511
 11    -0.0003864090422376
 12    -0.0002772793303265
 13     0.0017164825061986
 14    -0.0038923327238910
 15    -0.0013528764965366
 16    -0.0041871987746584
 17    -0.0042106068600200
 18    -0.0156594916279885
 19    -0.0015997959136783
 20     0.0026501470496067
 21     0.0021614870691889
 22     0.0012380144438953
 23    -0.0034752840835501
 24    -0.0022097606253791
 25    -0.0083636951618069
 26    -0.0083417862608432
 27    -0.0130866761887467
 28    -0.0002627216685520
 29    -0.0017803803791213
 30    -0.0013539592577623
 31    -0.0013755608068634
 32     0.0012821810402639
 33     0.0242314109108637
 34     0.0116381049833845
 35     0.0111531457200043
 36    -0.0188615780891405
 37     0.0237781776509722
 38     0.0170169651948991
 39    -0.0016301360649271
 40    -0.0043132633239329
 41     0.1770688722727873
 42     0.0739842366316117
 43    -0.1880066773121347
 44    -0.0756876363195003
 45    -0.0421268315849372
 46    -0.0325806592937738
 47     0.0336139771972924
 48     0.0303266090667390
 49     0.2216539964354899
 50     0.0863695889237961
 51    -0.2068677742945801
 52    -0.0809381379409483
 53    -0.2079744447944830
 54    -0.0815287932020128
 55     0.2209658637633660
 56     0.0855617001348103
 57     0.0308110909608115
 58     0.0291161062933709
 59    -0.0414093918112844
 60    -0.0327793673548354
 61    -0.1853898297202754
 62    -0.0748911647360967
 63     0.1733796144724917
 64     0.0722820845374502
 65    -0.0045579812486472
 66    -0.0058220171833892
 67     0.0204857618254605
 68     0.0153235083803389
 69    -0.0136458456580904
 70     0.0186589166629333
 71    -0.0049819293923036
 72     0.0144206547399746
 73     0.0022393221369719
 74    -0.0403982298738272
 75     0.0160406443054406
 76     0.0078307184329910
 77    -0.1122307182992820
 78     0.1335490797432348
 79    -0.0509062057657118
 80     0.1050980600474943
 81     0.1093064693253046
 82     0.1454054193816224
 83    -0.0673067601503474
 84    -0.1086617645657376
 85    -0.0711886921468110
 86    -0.1275703949310394
 87     0.0508561754167358
 88    -0.0275440668821094
 89     0.0778449778188288
 90    -0.1196894679282001
 91     0.0509593729767033
 92     0.0185112184182282
 93    -0.0028687458764867
 94    -0.1421589844210920
 95     0.0701855265672001
 96    -0.0145375918962900
 97    -0.0007658447647432
 98    -0.0631155129345012
 99    -0.0145969921041318
 100    -0.0131561606737951
 101    -0.0927618610887516
 102    -0.2518263099821432
 103    -0.0043074767142997
 104     0.0463449499571658
 105     0.0877579250832408
 106    -0.2341788577036200
 107     0.0006530059517300
 108    -0.0412429481122109
 109     0.0894853525086291
 110     0.2386084011483409
 111     0.0000486083158630
 112     0.0353396308390268
 113    -0.0900557023098322
 114     0.2482778084184589
 115    -0.0050786504782702
 116    -0.0514827075759490
 117     0.0056322084468409
 118     0.0646970347193719
 119    -0.0144132811117822
 120     0.0129412497258148
 121    -0.0016612379643684
 122     0.1390013689131437
 123     0.0685502333580237
 124     0.0177865740805633
 125     0.0772988757091359
 126     0.1146034734522103
 127     0.0483891086798975
 128    -0.0175014006734834
 129    -0.0691095787857742
 130     0.1268244657414912
 131     0.0501492647191442
 132     0.0291893117406964
 133     0.1058591599921629
 134    -0.1440210219800566
 135    -0.0664106083889509
 136     0.1083967072570525
 137    -0.1129941475612438
 138    -0.1298250923404785
 139    -0.0493357483245409
 140    -0.1007122611540124
 141     0.0017827081759029
 142     0.0399469729397292
 143     0.0155544697683974
 144    -0.0127176709423828
 145    -0.0071549745690676
 146    -0.0186716288794401
 147    -0.0033401103353755
 148    -0.0150869155367250
 149     0.0002433076034999
 150    -0.0015493778489908
 151    -0.0013384588497028
 152     0.0013352466112941
 153     0.0012751503665274
 154     0.0229043084667871
 155    -0.0112820050368145
 156     0.0095266529864732
 157     0.0185785572748832
 158     0.0005467513225042
 159    -0.0012023187132834
 160    -0.0007836910331788
 161     0.0012482050611505
 162     0.0008909656192515
 163    -0.0154006141190665
 164     0.0189393822133335
 165    -0.0081054304041560
 166    -0.0008320697997577
 167    -0.0028765719812200
 168    -0.0003178543574776
 169    -0.0002698272613127
 170    -0.0016694044016934
 171    -0.0035558684354541
 172    -0.0014674527790217
 173     0.0040429598719258
 174    -0.0033124732744254
 175     0.0138191919480656
 176     0.0015924212557540
 177     0.0025147843284999
 178     0.0021555507802243
 179    -0.0011255686420220
 180    -0.0034467040570134
 181    -0.0019635701196652
 182     0.0083097026968192
 183    -0.0075662410581677
 184     0.0131074526178815
 Sym= 165A
 Ene= 0.790111
 Spin= Alpha
 Occup= 2.000000
  1    -0.0022281076580820
  2    -0.0041385647508300
  3    -0.0036935226083394
  4     0.0024987367385285
  5    -0.0031769426834864
  6    -0.0065894138200969
  7    -0.0094252846207903
  8     0.0167886446128978
  9    -0.0194642775362747
 10    -0.0017474722410294
 11     0.0026751478900996
 12    -0.0002160587999641
 13     0.0014678205008411
 14     0.0062027854936546
 15    -0.0138997694452223
 16    -0.0046308538943762
 17     0.0352143714007701
 18     0.0423192869422582
 19    -0.0031419655827109
 20    -0.0017311184634588
 21     0.0048108446862711
 22    -0.0027745758111987
 23    -0.0066608666123809
 24     0.0026897697937700
 25    -0.0097800749938711
 26     0.0190587831943958
 27    -0.0313084731225684
 28    -0.0008220077701891
 29     0.0071681619683170
 30    -0.0007539439346380
 31     0.0004782241834884
 32     0.0031523372122205
 33    -0.0000692676093121
 34     0.0106220355812118
 35    -0.0489150962249580
 36    -0.0335924321590217
 37    -0.0976878386710217
 38    -0.0564682927339298
 39    -0.0987273138581094
 40    -0.0524640298116370
 41    -0.1144147695249307
 42    -0.0552034210957945
 43    -0.0827518126401893
 44    -0.0433114895570609
 45    -0.1151653976836240
 46    -0.0312872676134472
 47    -0.1434548451741203
 48    -0.0427454474002519
 49     0.1284138507023503
 50     0.0351803102171846
 51     0.1350183792162010
 52     0.0403766864153877
 53     0.1407830391407625
 54     0.0450350959630352
 55     0.1346129662446022
 56     0.0411913251808347
 57    -0.1215696173576822
 58    -0.0327807641453436
 59    -0.1073449151074716
 60    -0.0264097014190337
 61    -0.0846899209267142
 62    -0.0429050659869366
 63    -0.1046163502233843
 64    -0.0507587178435942
 65    -0.0827481696577332
 66    -0.0446379517820504
 67    -0.0828846772369913
 68    -0.0486781122183378
 69     0.2431433365889897
 70     0.0033999775127340
 71     0.0577882039685516
 72     0.0708485550713901
 73    -0.0049371317308533
 74    -0.0121008824948394
 75    -0.0061281590625318
 76     0.2400649796469824
 77    -0.0204715414039670
 78    -0.1295448670362514
 79     0.0504710315096685
 80    -0.0838309126809137
 81    -0.0360698547481694
 82     0.1008741110012223
 83    -0.0427072542129188
 84    -0.0781893219128054
 85     0.0467346410421200
 86    -0.1178221777149965
 87     0.0525774485976331
 88    -0.0124232876790249
 89     0.0681952447772072
 90     0.1409056768261504
 91    -0.0667601276317211
 92    -0.0016984820407132
 93    -0.0217106959244789
 94    -0.0014302764244261
 95    -0.0124859837373864
 96    -0.2508318006037294
 97     0.0162709071043894
 98     0.0014749293848383
 99    -0.0085039069375633
 100    -0.2711496887265313
 101    -0.0104585209987724
 102    -0.1379393673995870
 103    -0.0068399117429931
 104     0.0470893900829570
 105    -0.0036077303153690
 106     0.1520773389587554
 107     0.0057942049699051
 108     0.0525233458023764
 109    -0.0222325427830939
 110    -0.1680731909322486
 111     0.0058466791110040
 112    -0.0238247529619213
 113    -0.0295946351102173
 114     0.1552109101507436
 115    -0.0069352910875345
 116    -0.0193839699964018
 117    -0.0086026088034511
 118    -0.0016770360752267
 119    -0.0082533689380296
 120     0.2665528754548669
 121    -0.0356928352146921
 122     0.0004006873217126
 123    -0.0117230685724214
 124     0.2286122239813928
 125     0.0514771684575776
 126    -0.1136655812700370
 127    -0.0540876418397558
 128    -0.0076924499202052
 129     0.0348789305554833
 130     0.1013491889764526
 131     0.0468383050553286
 132    -0.0093104375645214
 133    -0.0221974792206951
 134    -0.1051341469257073
 135    -0.0441694322562251
 136     0.0598455831423555
 137    -0.0068294054024429
 138     0.1227797681133004
 139     0.0486432033915479
 140     0.0572158456451395
 141     0.0101487429815398
 142     0.0091336083342011
 143    -0.0051800564906393
 144    -0.2137638541466423
 145     0.2071831178664822
 146    -0.0019152222513814
 147     0.0491381546615955
 148    -0.0613241805560660
 149     0.0007877173327497
 150     0.0060689171547802
 151    -0.0007161076422278
 152    -0.0003866505756111
 153     0.0028106345381090
 154     0.0008991326913478
 155    -0.0102884466656293
 156    -0.0415336429574584
 157     0.0296191559660296
 158     0.0018783108457935
 159    -0.0037020718648506
 160    -0.0031574597850044
 161    -0.0021154685630685
 162    -0.0026002860084675
 163    -0.0064380080183121
 164     0.0093485522281513
 165     0.0141305523456325
 166     0.0161948601078449
 167     0.0013707458982349
 168     0.0023138182637908
 169    -0.0002128809424181
 170    -0.0014293526503281
 171     0.0051796609246993
 172    -0.0124656933736931
 173     0.0045073238746405
 174     0.0303259931475894
 175    -0.0352431146435536
 176     0.0027645534549860
 177    -0.0013520622616882
 178     0.0042409289047355
 179     0.0023857582725655
 180    -0.0059900830951858
 181     0.0026446705461355
 182     0.0093863287738218
 183     0.0163479586738934
 184     0.0276771569320358
 Sym= 166A
 Ene= 0.793108
 Spin= Alpha
 Occup= 2.000000
  1     0.0022000669383783
  2     0.0023424521545590
  3     0.0033087467588007
  4    -0.0025196366764057
  5     0.0039462543889637
  6    -0.0015984260165168
  7    -0.0032961065953316
  8    -0.0170108054665093
  9     0.0210519103229923
 10     0.0023247288571933
 11    -0.0023205409186790
 12     0.0000783418747731
 13     0.0001384639414443
 14    -0.0067267500792999
 15     0.0093128029995238
 16     0.0003104715344168
 17    -0.0313620060042504
 18    -0.0441663626219382
 19     0.0021565827008074
 20     0.0028948032874748
 21    -0.0032224711431369
 22     0.0025739715192015
 23     0.0035683483764205
 24    -0.0000035205067680
 25    -0.0000732273242475
 26    -0.0177648179249302
 27     0.0200373129863014
 28     0.0003121560698043
 29    -0.0064075585291481
 30     0.0002930310293207
 31    -0.0003491540016098
 32    -0.0017959282878611
 33     0.0070604865381579
 34     0.0008727431800567
 35     0.0449221556414055
 36     0.0229978341576124
 37     0.0931744280453969
 38     0.0469066298928813
 39     0.0877955563458121
 40     0.0442280736611345
 41     0.0520877735811860
 42     0.0243908118843701
 43    -0.0032373935758772
 44     0.0050294917009630
 45     0.0594270258666767
 46     0.0363023203057250
 47     0.1223698717407099
 48     0.0566145485202934
 49     0.0297681363433509
 50     0.0325289505802652
 51     0.0560699047679496
 52     0.0377354818789613
 53    -0.0317483047594718
 54    -0.0301812081822480
 55    -0.0163587556752186
 56    -0.0292523304137168
 57    -0.1416858397652107
 58    -0.0627171418471451
 59    -0.0788402141241997
 60    -0.0414881047699151
 61    -0.0053072111602502
 62    -0.0097561615278139
 63    -0.0717972914892536
 64    -0.0338242055709815
 65    -0.1004572408953843
 66    -0.0510714653967860
 67    -0.1083013656395652
 68    -0.0553447463327741
 69    -0.2155535955586771
 70    -0.0021415597005895
 71    -0.0517258748385303
 72    -0.0622226322563567
 73     0.1025664357866255
 74     0.0121084506965549
 75     0.0054669006651292
 76    -0.1590522623828023
 77     0.0799850825843136
 78     0.0285803806041172
 79    -0.0046253820171231
 80     0.1602937541783997
 81     0.0954552149066143
 82     0.0223248499563705
 83    -0.0065938759057076
 84     0.1382714290323733
 85    -0.0778905179958330
 86     0.1125351030135693
 87    -0.0397861524944842
 88     0.1257129783748816
 89    -0.1084863634980675
 90    -0.1628760884007526
 91     0.0762035269682987
 92     0.0878211086091611
 93    -0.0946717817653421
 94     0.0025311817857551
 95     0.0065202871522120
 96     0.1319784407787557
 97    -0.1587411735120751
 98    -0.0083230424742868
 99    -0.0009759140999211
 100     0.0143472404547055
 101    -0.0982501503634040
 102    -0.1072843490023707
 103     0.0013992768777799
 104    -0.1718350982036956
 105    -0.1231686135069815
 106     0.1149503029005615
 107    -0.0016292176162004
 108    -0.1616953187433547
 109     0.1172118549090684
 110     0.0872788502166171
 111     0.0020679428016848
 112    -0.1653673704044847
 113     0.0992206762548673
 114    -0.0927624790222233
 115    -0.0022712767724882
 116    -0.1778175117452006
 117     0.1592531661886539
 118    -0.0101299582157646
 119     0.0002567544249417
 120     0.0508182183975607
 121     0.0943836491450179
 122    -0.0035719631501406
 123    -0.0110223056529805
 124     0.1663143036380717
 125     0.1158173288570568
 126    -0.1860751972549074
 127    -0.0872291586256780
 128     0.0943745458138097
 129     0.0895964814871640
 130     0.1290793814480965
 131     0.0471192271561481
 132     0.1250475020703062
 133    -0.1052514978104772
 134     0.0108526413839171
 135     0.0014774437772377
 136     0.1505088293126738
 137    -0.0802763249585580
 138     0.0490844114237815
 139     0.0122672758488501
 140     0.1752118118132330
 141    -0.1046380932528512
 142     0.0119020053422042
 143    -0.0066608883697849
 144    -0.1940207548034392
 145     0.2506395487347466
 146    -0.0011398489208130
 147     0.0600175351132280
 148    -0.0730992084844418
 149     0.0004410650469474
 150     0.0074424193444197
 151    -0.0003813473000869
 152    -0.0004068741994874
 153     0.0022342738424225
 154    -0.0073427313114607
 155    -0.0000593074578960
 156    -0.0522868004990583
 157     0.0276433399347608
 158     0.0025428464505575
 159    -0.0029001719765652
 160    -0.0038691080331899
 161    -0.0029426481760069
 162    -0.0045235319954350
 163     0.0012143679207601
 164    -0.0027365893567764
 165     0.0197629574364794
 166     0.0242286492298556
 167     0.0026047355956244
 168     0.0027485956773496
 169    -0.0001135734979809
 170     0.0000051271614069
 171     0.0077698874089164
 172    -0.0115356215536570
 173     0.0008361718832989
 174     0.0370018886282348
 175    -0.0507064787689567
 176     0.0025832454828990
 177    -0.0032840969291478
 178     0.0038778166331809
 179     0.0030385048363170
 180    -0.0044452506178895
 181     0.0003760852877044
 182     0.0008594219093218
 183     0.0209050530409009
 184     0.0242154545106070
 Sym= 167A
 Ene= 0.810208
 Spin= Alpha
 Occup= 2.000000
  1    -0.0012090621887164
  2    -0.0008629370195532
  3    -0.0012792493043656
  4     0.0020651264757239
  5    -0.0028151590683314
  6     0.0090760026564759
  7     0.0113799126506378
  8     0.0141315885821752
  9    -0.0134621820380342
 10    -0.0018208134963072
 11     0.0012557555228489
 12     0.0004178829957155
 13    -0.0019042643449582
 14     0.0049131900272850
 15    -0.0030338502376245
 16     0.0100540095927960
 17     0.0165400339987529
 18     0.0262352753745144
 19     0.0000537210534754
 20    -0.0019764393505800
 21    -0.0002582908327925
 22    -0.0013804115447093
 23     0.0012957367246687
 24     0.0022393240777546
 25     0.0036751194008699
 26     0.0079454308686837
 27     0.0038290046037806
 28    -0.0014280416584547
 29     0.0026530621203677
 30    -0.0000612629963127
 31    -0.0021097020814341
 32    -0.0009279390149712
 33    -0.0135939115586598
 34    -0.0162254135270134
 35    -0.0189151147992901
 36    -0.0004206870465814
 37    -0.0103596590686462
 38    -0.0020339259317592
 39    -0.0628684070765034
 40    -0.0243338558844390
 41     0.0418547324965676
 42     0.0243004257275648
 43     0.0837605163471692
 44     0.0276648433052220
 45     0.0384410127394617
 46     0.0042143483036592
 47    -0.1649894271986065
 48    -0.0677576401847571
 49    -0.0152769923155514
 50    -0.0241119899860656
 51    -0.0542939580129247
 52    -0.0227680147779404
 53    -0.0515675418391267
 54    -0.0201763805337385
 55    -0.0148162907402038
 56    -0.0251465787584482
 57    -0.1817129787270334
 58    -0.0734754236039871
 59     0.0549770071581658
 60     0.0105345819977816
 61     0.0958943419779253
 62     0.0317426843898520
 63     0.0286055611556461
 64     0.0202320342646218
 65    -0.0655675558767025
 66    -0.0246711132074701
 67    -0.0030526210914374
 68     0.0002731598488165
 69     0.0947540475118807
 70     0.0523687512603308
 71     0.0103392274549419
 72     0.0442982009375037
 73    -0.1680499536809104
 74    -0.0789239133870226
 75     0.0267422834118342
 76     0.0230484949527087
 77    -0.1917268070255567
 78     0.0634160464466994
 79    -0.0377231074189304
 80    -0.1948487895491666
 81    -0.0582478617835269
 82    -0.1665991203554334
 83     0.0672189592608730
 84    -0.1528897485199442
 85     0.0603051688892831
 86    -0.0737599571915771
 87     0.0118806991739546
 88    -0.2917503236177090
 89     0.1870498150741686
 90     0.1612849665160686
 91    -0.0762321635960525
 92    -0.0557996204104120
 93     0.1909357280902246
 94    -0.0854023109540474
 95     0.0394818015662212
 96     0.0417313580019233
 97    -0.0130741677523620
 98    -0.0081401978313686
 99    -0.0003669450272700
 100     0.1332164005893750
 101    -0.0403501052499773
 102     0.0378584137297766
 103    -0.0006984842780263
 104    -0.0521847889100394
 105     0.0336821443169196
 106    -0.0782900917523921
 107     0.0017925030985465
 108     0.0278259021414043
 109     0.0264587114069698
 110     0.0761443617447220
 111     0.0014254075355839
 112    -0.0251466720271098
 113    -0.0409014558383788
 114    -0.0336444148985256
 115    -0.0007768858278321
 116     0.0600056161905383
 117    -0.0179778505320936
 118     0.0141637996771518
 119    -0.0003127042302720
 120    -0.1347378392070839
 121     0.1918707431341758
 122     0.0862942158325583
 123     0.0405870834025570
 124    -0.0443437000765978
 125     0.1867369643409732
 126    -0.1740610668464759
 127    -0.0817021553995265
 128     0.0363608506215663
 129     0.0578034081836069
 130     0.0596828417853789
 131     0.0042315266985363
 132     0.3067794939792910
 133    -0.0505563174992261
 134     0.1806654708362180
 135     0.0735776520634731
 136     0.1381439629662684
 137    -0.1969484886508078
 138    -0.0464858959664882
 139    -0.0314284867216565
 140     0.2048808876762386
 141    -0.1654439635231431
 142     0.0881407587548864
 143     0.0306547137692737
 144    -0.0227357892926044
 145     0.0912493864239072
 146    -0.0609268962779919
 147     0.0072385798151447
 148    -0.0448817627782816
 149     0.0016610262308115
 150     0.0025531948853796
 151    -0.0000079185718632
 152     0.0024459083605687
 153    -0.0010272790249913
 154    -0.0146326720178345
 155     0.0175313081596382
 156    -0.0181291349001942
 157    -0.0010047115998506
 158     0.0011571967859687
 159    -0.0010463621832131
 160    -0.0011792965042415
 161    -0.0021807243212826
 162    -0.0027708281065691
 163     0.0094899047168122
 164    -0.0113146570304640
 165     0.0149309468681680
 166     0.0133071156885563
 167     0.0018818937682086
 168     0.0012859836204548
 169     0.0005030558800308
 170     0.0019930061035254
 171     0.0050165348020915
 172    -0.0033339113182782
 173    -0.0113703684953359
 174     0.0166195926866567
 175    -0.0257703129208281
 176    -0.0002105813943595
 177    -0.0018550634685111
 178    -0.0004841471577337
 179     0.0014035536546627
 180     0.0015100188990649
 181     0.0032747980977445
 182    -0.0027728484159064
 183     0.0078021508923845
 184    -0.0054178916653046
 Sym= 168A
 Ene= 0.810307
 Spin= Alpha
 Occup= 2.000000
  1     0.0007307519035995
  2    -0.0008322721541388
  3     0.0014419402286609
  4     0.0016189180134349
  5     0.0001449403511813
  6     0.0120121521361936
  7     0.0096422933025974
  8     0.0112638370602306
  9     0.0014658116718277
 10    -0.0022301073612769
 11     0.0002771681860219
 12     0.0008305934044191
 13    -0.0018298132635896
 14     0.0029591939611023
 15     0.0003179894493295
 16     0.0142899748846300
 17     0.0010986536439834
 18     0.0058114275084418
 19     0.0021901669243181
 20    -0.0000924358090878
 21    -0.0032134237982991
 22    -0.0006277953598287
 23     0.0040150272079966
 24     0.0097487330144857
 25    -0.0033934920061990
 26     0.0016248853192702
 27     0.0211352327502535
 28    -0.0023404282690520
 29     0.0004667082136238
 30     0.0007194569935765
 31    -0.0027864297568373
 32    -0.0021777738441729
 33    -0.0237023356177272
 34    -0.0178583209254352
 35     0.0016005711645848
 36     0.0234088258823579
 37     0.0595575427226419
 38     0.0176265198362192
 39    -0.0321367563899636
 40    -0.0057443163816206
 41    -0.1505678287593356
 42    -0.0469236574744233
 43     0.1695993699315702
 44     0.0590025750625090
 45     0.2039542491461797
 46     0.0745612868961660
 47    -0.2046976857224996
 48    -0.0709517489616664
 49     0.0140664525126711
 50    -0.0107264225773655
 51     0.0051520761431905
 52     0.0194360888334963
 53    -0.0099374101928393
 54    -0.0237285258030207
 55    -0.0219862802251422
 56     0.0073044736580877
 57     0.2104187314670956
 58     0.0715341629333811
 59    -0.2259884862392446
 60    -0.0838001244622271
 61    -0.1642958496125052
 62    -0.0563595802661548
 63     0.1696635276226699
 64     0.0531977661157035
 65     0.0296858397077588
 66     0.0040021960135467
 67    -0.0750856507452428
 68    -0.0224966007477811
 69    -0.0192891239248810
 70     0.0795645276998627
 71    -0.0241683124663723
 72     0.0052437464582468
 73    -0.0091148513823544
 74    -0.0811672525680978
 75     0.0332179955005702
 76    -0.0139543653326234
 77    -0.0585870612146106
 78    -0.1624345917522839
 79     0.0592991600797977
 80    -0.1596026096528547
 81     0.0474474950464379
 82    -0.1890897854505537
 83     0.0890685571187120
 84     0.1467171573534511
 85    -0.0131895016284257
 86     0.1686425075527411
 87    -0.0902520784833686
 88    -0.2070331272248702
 89     0.0218062582590378
 90     0.1693604469082531
 91    -0.0732806152359461
 92     0.1971921499506006
 93     0.0198902143280293
 94    -0.0073244070850723
 95     0.0099064939771928
 96     0.0251888536654347
 97    -0.0375072005077196
 98    -0.0519928397845277
 99     0.0039503997470496
 100     0.0211218954893422
 101    -0.0077562461806427
 102    -0.0364620154345184
 103    -0.0030984366957168
 104    -0.0554469535548158
 105    -0.0509945908733477
 106     0.0034309595534214
 107    -0.0024134619822519
 108    -0.0254948779995753
 109     0.0466208969447102
 110     0.0118159541939464
 111     0.0023237110911760
 112    -0.0182929548916688
 113     0.0107154134803130
 114    -0.0484173986354860
 115     0.0029843370539306
 116    -0.0572765386534939
 117     0.0346568276209232
 118    -0.0538305508862667
 119    -0.0025999974217139
 120    -0.0023803858712938
 121     0.0107214713233758
 122    -0.0164923984895863
 123    -0.0137899440825125
 124     0.0154305090676610
 125    -0.0086999815871607
 126     0.1601766700757532
 127     0.0675526919835062
 128     0.2416702781606665
 129     0.0371092012708251
 130     0.1931560770210179
 131     0.1002906528083831
 132    -0.1957288990408509
 133    -0.0759594422130712
 134    -0.1791818980841957
 135    -0.0860532855410562
 136     0.1808099853155608
 137     0.0464681948444499
 138    -0.1928918878643284
 139    -0.0726330457056979
 140    -0.1412271361232090
 141    -0.0172693755010104
 142    -0.0911313805019008
 143    -0.0379343723896775
 144    -0.0158516545390915
 145     0.0372250723926789
 146     0.0890402237825088
 147     0.0309174651355041
 148     0.0017856560639938
 149    -0.0026247395006561
 150     0.0001105915402145
 151    -0.0007462418614966
 152    -0.0031455451882754
 153     0.0021907486820623
 154     0.0224928255798778
 155    -0.0170995995196571
 156    -0.0059459573724160
 157     0.0246305797378117
 158     0.0009569876056608
 159     0.0011177487603793
 160    -0.0017426651675093
 161     0.0014485706659103
 162    -0.0006921374661859
 163    -0.0103748731943345
 164     0.0066446419580308
 165    -0.0101782884456717
 166     0.0036876070140910
 167    -0.0019422751055061
 168    -0.0001370901403798
 169    -0.0009037510722738
 170    -0.0015878819300923
 171    -0.0022394057777108
 172    -0.0001298866392403
 173     0.0148246561157670
 174     0.0013449666792747
 175     0.0006813335362113
 176     0.0023540649733268
 177    -0.0005600052719382
 178     0.0034266200306794
 179    -0.0004076756039467
 180    -0.0039785825314295
 181    -0.0111637339978234
 182    -0.0061091827243198
 183     0.0001385079524411
 184     0.0224862477934770
 Sym= 169A
 Ene= 0.816490
 Spin= Alpha
 Occup= 2.000000
  1     0.0006516900971440
  2     0.0012102217394452
  3     0.0010432787949286
  4     0.0007008248607843
  5    -0.0000578621572845
  6     0.0120104011609239
  7     0.0139722915775087
  8     0.0045421230396803
  9     0.0026055569900332
 10    -0.0021117612131887
 11    -0.0000165128907548
 12     0.0001330922745515
 13    -0.0012047749891642
 14     0.0021903199010549
 15     0.0028352148669708
 16     0.0021486806726186
 17    -0.0004790180363953
 18     0.0085730954375695
 19     0.0011832877944128
 20    -0.0016343122522089
 21    -0.0017323356365584
 22    -0.0005903577086241
 23     0.0027328187696954
 24     0.0007526298668578
 25     0.0063050736542083
 26     0.0039551803558784
 27     0.0095304262340527
 28     0.0003627939890013
 29     0.0006894471311366
 30     0.0006872692864315
 31     0.0011127327803071
 32    -0.0012310627023732
 33    -0.0174108793283844
 34    -0.0055798531263198
 35    -0.0038937927785335
 36     0.0164690873848210
 37    -0.0166684612177544
 38    -0.0118919569603502
 39     0.0078934713109295
 40     0.0053778457904690
 41    -0.1470541800613829
 42    -0.0562655920023297
 43     0.1379741843740387
 44     0.0511203620642727
 45     0.1023773222536106
 46     0.0191253386106345
 47    -0.0893503966607029
 48    -0.0122743533673007
 49     0.2080551668887791
 50     0.0621726528206444
 51    -0.2045351365223306
 52    -0.0589492429427672
 53    -0.2082961738049454
 54    -0.0608513304755921
 55     0.2072254907137035
 56     0.0624702795818946
 57    -0.0827354591031214
 58    -0.0100436579459361
 59     0.0977669813548521
 60     0.0169749728449597
 61     0.1342927788877798
 62     0.0499661830554765
 63    -0.1472116453802783
 64    -0.0566731978488439
 65     0.0102825077829912
 66     0.0062101758474837
 67    -0.0183643053120814
 68    -0.0126167334514807
 69     0.0012391231189281
 70    -0.0197445481439592
 71     0.0035886523142962
 72    -0.0121813237516575
 73     0.0150184443655382
 74     0.0538053015593255
 75    -0.0213653421411288
 76    -0.0029308173717798
 77     0.0717277465875426
 78    -0.1100332390976792
 79     0.0417424264481344
 80    -0.1150594816590719
 81    -0.0455011409551167
 82    -0.0911028801142722
 83     0.0470881070086043
 84     0.1491941544360876
 85     0.0386064316681900
 86     0.1362274147747027
 87    -0.0645629524431555
 88    -0.0272041541009237
 89    -0.0651557503529953
 90     0.1108962977603732
 91    -0.0509702468555406
 92     0.0704897941030077
 93    -0.0157726971764897
 94     0.1141811624478550
 95    -0.0433723736903590
 96     0.0038418327873621
 97    -0.0012613859106069
 98     0.0027038540526183
 99     0.0109092947125227
 100    -0.0059352381269581
 101     0.0347714343681932
 102    -0.1844013060414169
 103    -0.0094364441197711
 104     0.2613122913430708
 105    -0.0373726029529353
 106    -0.1831299193720257
 107    -0.0080507875232355
 108    -0.2598436748993672
 109    -0.0318519744132739
 110     0.1877172074901737
 111    -0.0083380113065289
 112     0.2566363322455304
 113     0.0350584368713399
 114     0.1791672645593744
 115    -0.0100396994059345
 116    -0.2684386294063908
 117     0.0057652825852983
 118    -0.0063628736477388
 119     0.0110618810826051
 120     0.0063518916157638
 121    -0.0194207680960761
 122    -0.1158485547249988
 123    -0.0443620380492087
 124    -0.0012992988795261
 125    -0.0688914134870573
 126    -0.1057573652581382
 127    -0.0483023436236554
 128    -0.0674406368105627
 129     0.0376718084671525
 130    -0.1338782012932740
 131    -0.0627309051200054
 132     0.0176281067032077
 133    -0.0467200751690146
 134     0.0848202181148617
 135     0.0443088430818895
 136    -0.1498430497020647
 137     0.0790785948215786
 138     0.1085216092531691
 139     0.0412963568332879
 140     0.1099192079581880
 141     0.0174545167979099
 142    -0.0586583652605090
 143    -0.0232529069344942
 144     0.0034733396445985
 145     0.0000508253942923
 146     0.0234686632992997
 147     0.0041946515580617
 148     0.0130140074382430
 149    -0.0004538384149161
 150     0.0006635569525691
 151     0.0006831655408811
 152    -0.0012543371014657
 153    -0.0011226014906834
 154    -0.0162242073143419
 155     0.0047378279029480
 156    -0.0036907863222657
 157    -0.0155119992300793
 158    -0.0006379039424972
 159     0.0012632738824418
 160     0.0009963363324545
 161    -0.0006094075911635
 162    -0.0000464353987558
 163     0.0114430596687060
 164    -0.0135100986434524
 165     0.0039117888290330
 166    -0.0026711938942573
 167     0.0019929468402565
 168    -0.0000442220911971
 169     0.0000994351146539
 170     0.0011215401200802
 171     0.0019934280961547
 172     0.0028277578585486
 173    -0.0015189457639348
 174    -0.0007639833122278
 175    -0.0078728806760724
 176    -0.0011040117587412
 177    -0.0016127249439176
 178    -0.0016058070205877
 179     0.0005427419656643
 180     0.0025687175520071
 181     0.0002700660944106
 182    -0.0064846060707724
 183     0.0037451193919751
 184    -0.0086950027989164
 Sym= 170A
 Ene= 0.817353
 Spin= Alpha
 Occup= 2.000000
  1     0.0009751414407973
  2    -0.0030522777005926
  3     0.0015228361779900
  4     0.0002266610618801
  5     0.0023482143181122
  6    -0.0065140589235044
  7    -0.0158413944564861
  8     0.0021767701489853
  9     0.0074508173996502
 10     0.0008259762154083
 11    -0.0002629932172493
 12     0.0008658128908256
 13     0.0004849598826114
 14    -0.0017844829368764
 15    -0.0027693611963520
 16     0.0124847381460388
 17    -0.0073935333171973
 18    -0.0207137528804569
 19     0.0015366443171791
 20     0.0038930307735761
 21    -0.0021190230662967
 22     0.0007029057204270
 23     0.0008851716873417
 24     0.0142101065631551
 25    -0.0199264192526904
 26    -0.0080625140178832
 27     0.0151526381280934
 28    -0.0035621044814455
 29    -0.0017488320414742
 30     0.0000663201552929
 31    -0.0049074827846497
 32    -0.0007467808580029
 33    -0.0022296865852555
 34    -0.0078528135154388
 35     0.0197843076036647
 36     0.0113393862613179
 37     0.1283434447609914
 38     0.0455037787662720
 39    -0.0278155214208019
 40    -0.0044346201920871
 41    -0.0715411120862319
 42    -0.0123552430640581
 43    -0.0042819190114024
 44    -0.0097056646973062
 45     0.2146878934760552
 46     0.0839604171426925
 47    -0.1409459600242285
 48    -0.0478422484241007
 49     0.0128066642409923
 50    -0.0017295669631612
 51     0.0264227132114251
 52     0.0280906493014866
 53     0.0207162768699364
 54     0.0236099987654598
 55     0.0076613812715815
 56    -0.0018711378014557
 57    -0.1163796452752100
 58    -0.0400320151027767
 59     0.1904932096368424
 60     0.0743600134289426
 61    -0.0251564240994098
 62    -0.0169302865058443
 63    -0.0565735549313224
 64    -0.0078840543267763
 65    -0.0248547790883272
 66    -0.0042578055414635
 67     0.1204683070446600
 68     0.0427136299088419
 69    -0.0872263532183588
 70     0.1282440416043949
 71    -0.0500889391182407
 72     0.0000450933237391
 73     0.0953180638225521
 74    -0.1678597962202721
 75     0.0706532169852712
 76    -0.0138828139527164
 77    -0.0811144069397553
 78    -0.1711780126172019
 79     0.0725445847624939
 80     0.0440989033487249
 81     0.2162491921799227
 82    -0.0367824962760524
 83     0.0214153215771981
 84     0.1421444316665327
 85    -0.1681943653882157
 86     0.1435383365492682
 87    -0.0738792595654106
 88    -0.1250729244310661
 89     0.0296643765928626
 90     0.0107400665518526
 91     0.0033158418511410
 92     0.3167594722145055
 93    -0.1006663730874606
 94    -0.1552049372951708
 95     0.0696477661554582
 96    -0.0233233240143892
 97     0.0028801763532778
 98    -0.0332616726105600
 99    -0.0117297609618275
 100    -0.0673671748417862
 101    -0.0599293544674995
 102    -0.0398633855974474
 103     0.0023845789173191
 104    -0.1127122399513397
 105     0.0540482881063474
 106     0.0304058999138590
 107     0.0026539299790923
 108     0.1135964966096612
 109     0.0693871019123715
 110    -0.0228447315072307
 111     0.0029862053000486
 112    -0.1254738161627182
 113    -0.0526971706095535
 114     0.0274312588716044
 115     0.0028916995813784
 116     0.0945508998384438
 117     0.0172799802338658
 118     0.0245104651965286
 119    -0.0122478881460326
 120     0.0711862181999956
 121    -0.1059629493246007
 122     0.1552730637086259
 123     0.0682498552432504
 124     0.0300444475272788
 125     0.0287411024277090
 126     0.0091304051459618
 127     0.0121323844495594
 128    -0.2925451471525920
 129    -0.1674840555733378
 130    -0.1231489599631858
 131    -0.0627769805339479
 132     0.0992130095830612
 133     0.2085858444255311
 134     0.0125939746135427
 135     0.0103037990766435
 136    -0.1234061030845416
 137    -0.0716273200112069
 138     0.1538647589648998
 139     0.0661850864351578
 140    -0.0625174265561780
 141     0.0962857372235653
 142     0.1572538932249694
 143     0.0660916436632363
 144     0.0096551800349662
 145    -0.0829868555075986
 146    -0.1184581068348158
 147    -0.0469729252398071
 148     0.0000874652866135
 149     0.0032737958905324
 150    -0.0019387001591890
 151    -0.0000091385957333
 152     0.0045629241402979
 153    -0.0005506185746599
 154     0.0002447983418350
 155     0.0056958174941491
 156     0.0197552116820118
 157    -0.0087992202751258
 158    -0.0009037826959227
 159    -0.0029629344464781
 160     0.0013841549539353
 161    -0.0000401666085726
 162     0.0023743387862434
 163    -0.0078594993606841
 164     0.0169758940602246
 165     0.0008984629823950
 166    -0.0074725300776515
 167    -0.0010505114472430
 168    -0.0002910392788653
 169     0.0007792828677370
 170    -0.0007117951728891
 171    -0.0021345048937232
 172    -0.0028478299441334
 173    -0.0107999457198263
 174    -0.0076265116731176
 175     0.0213739813458480
 176    -0.0012907239062942
 177     0.0039146605479634
 178    -0.0017684732074020
 179    -0.0007733616577211
 180     0.0004381569054992
 181     0.0131949391938895
 182     0.0196590136153306
 183    -0.0082201874159880
 184    -0.0128139752508607
 Sym= 171A
 Ene= 0.832279
 Spin= Alpha
 Occup= 2.000000
  1    -0.0007383279453378
  2     0.0011209631432905
  3    -0.0007397438101082
  4     0.0009028806901858
  5    -0.0020602386401924
  6     0.0094296799458950
  7     0.0141764118874758
  8     0.0059917833318830
  9    -0.0074751618513547
 10    -0.0011726317030540
 11     0.0005260061979280
 12    -0.0000471185864768
 13    -0.0015832938546135
 14     0.0028819365863242
 15     0.0009257074412074
 16     0.0022536422970675
 17     0.0083553062487302
 18     0.0180596604650649
 19    -0.0001551363260405
 20    -0.0024118227284879
 21     0.0000199243749401
 22    -0.0007318075626568
 23     0.0013070505083635
 24    -0.0043900609301931
 25     0.0107541718061660
 26     0.0051193074676340
 27     0.0003991018495522
 28     0.0004553323016035
 29     0.0012491212077602
 30    -0.0002234868492667
 31     0.0003267808825654
 32    -0.0007961941015414
 33    -0.0077690691446229
 34    -0.0073860251114253
 35    -0.0120430314184494
 36     0.0002880176381204
 37    -0.0401696881684010
 38    -0.0098017657117631
 39    -0.0159184044169403
 40    -0.0063869806708533
 41     0.0801453083397575
 42     0.0289437713989829
 43     0.0554136656693986
 44     0.0208789284944065
 45    -0.0853946330695018
 46    -0.0190908016302045
 47    -0.0584714581320055
 48    -0.0107683792884814
 49     0.0974914067235821
 50     0.0309690915386817
 51     0.0939721678329726
 52     0.0269423051011417
 53    -0.0870375594779240
 54    -0.0251888299567825
 55    -0.1023911661201458
 56    -0.0323862328527446
 57     0.0629318231373719
 58     0.0118667093370362
 59     0.0772472465560379
 60     0.0166697174100092
 61    -0.0564774059038552
 62    -0.0209974015048638
 63    -0.0773666871984449
 64    -0.0283831687695454
 65     0.0166180598436396
 66     0.0063421269857628
 67     0.0357539472987782
 68     0.0082063643527132
 69     0.0582955454156896
 70    -0.0148687323163884
 71     0.0170198158618356
 72     0.0182953734966064
 73    -0.1371323146030567
 74     0.0117917761507142
 75    -0.0073412145521478
 76    -0.0106757757595831
 77    -0.0882247170691275
 78     0.1286090434975801
 79    -0.0609451176351288
 80    -0.1123959798319815
 81    -0.1093411961062997
 82    -0.0955216170739752
 83     0.0367197611182762
 84    -0.1467795066587967
 85     0.1037185877619304
 86    -0.1104615579568439
 87     0.0439938501312059
 88    -0.1222290413321639
 89     0.1150412319645502
 90     0.0837510519953115
 91    -0.0456990587904697
 92    -0.1534497637522504
 93     0.1678124264907943
 94    -0.0042835360949539
 95     0.0030294923301465
 96     0.0695074315682657
 97    -0.2146385578392025
 98     0.0159383023515091
 99     0.0008997624307708
 100     0.0530757136714898
 101    -0.1702318359659184
 102    -0.1528899482624304
 103    -0.0030805652614232
 104    -0.2000348781686574
 105    -0.1534154031867740
 106     0.1569194922250866
 107    -0.0012851095721919
 108    -0.2146244999648028
 109     0.1515754394469662
 110     0.1498618267993385
 111     0.0009053954380492
 112    -0.2171205331518994
 113     0.1720683054006859
 114    -0.1576077920665833
 115     0.0034048376840209
 116    -0.1974017472729148
 117     0.2138518380359788
 118     0.0147411413861378
 119    -0.0010058710590176
 120     0.0541092491257186
 121    -0.1659989472766582
 122    -0.0067208629665304
 123    -0.0044318614556351
 124     0.0704766435587491
 125    -0.1133936493071742
 126     0.0848000890790031
 127     0.0460123402507100
 128    -0.1428455944102976
 129    -0.0982989599453615
 130    -0.1043557695942010
 131    -0.0407102873209553
 132    -0.1253319875703190
 133     0.1017317948460440
 134    -0.0978312061300726
 135    -0.0376336316721230
 136    -0.1399182195566122
 137     0.0908821526488028
 138     0.1216977491758075
 139     0.0579633414332186
 140    -0.1104118044935261
 141     0.1327960053133913
 142     0.0058703404862966
 143     0.0047959325555270
 144    -0.0115042795621201
 145    -0.0548513751121714
 146    -0.0105249498688423
 147    -0.0152416256263458
 148     0.0179556267208405
 149     0.0003510476716056
 150    -0.0012141588661815
 151     0.0002084376769277
 152     0.0001642030023322
 153     0.0007441177888256
 154     0.0073993154966818
 155    -0.0075922147828665
 156     0.0114363236811498
 157     0.0003061691282377
 158    -0.0007241300698754
 159    -0.0009873384511022
 160     0.0007256368341187
 161     0.0009075762030327
 162     0.0020101683053183
 163    -0.0089982806575272
 164     0.0134145126445756
 165    -0.0060268865255565
 166    -0.0073959474588275
 167    -0.0011011857779786
 168    -0.0005267878946595
 169     0.0000169984809330
 170    -0.0015449786786961
 171    -0.0027955957880044
 172    -0.0006975752598284
 173     0.0026446040604392
 174    -0.0082664531624099
 175     0.0172101329781558
 176    -0.0001256670216850
 177     0.0022676736777297
 178     0.0000104705845407
 179    -0.0007107739389426
 180    -0.0012701789655826
 181     0.0039208128634094
 182     0.0099967977373708
 183    -0.0048556611806772
 184     0.0006907159853380
 Sym= 172A
 Ene= 0.856547
 Spin= Alpha
 Occup= 2.000000
  1    -0.0003136658914985
  2    -0.0038267738905285
  3    -0.0003843444636278
  4     0.0007388029147099
  5     0.0003504431703043
  6    -0.0102551924269240
  7    -0.0172642327342607
  8     0.0046495033518596
  9    -0.0029736976032211
 10     0.0014084813154731
 11     0.0007159171611286
 12     0.0007083004610531
 13     0.0009665886076383
 14    -0.0005425320163011
 15    -0.0091024393345123
 16     0.0092482268078484
 17     0.0059274526358860
 18    -0.0108605817510990
 19     0.0002816269103194
 20     0.0027602986589121
 21    -0.0002516510536941
 22    -0.0002094574946574
 23    -0.0013524360707927
 24     0.0132977317055587
 25    -0.0191409387086286
 26    -0.0015598621730506
 27     0.0052040190624494
 28    -0.0036286421709187
 29    -0.0003951673311877
 30    -0.0001362231124369
 31    -0.0047472887176049
 32     0.0004683518815275
 33     0.0056489060511662
 34    -0.0086595137856816
 35     0.0078004762976920
 36    -0.0059268521813357
 37     0.0949024571558890
 38     0.0362319925296168
 39    -0.0482032885981257
 40    -0.0148334611062699
 41     0.0847095469704514
 42     0.0429565587295270
 43    -0.0903913812637825
 44    -0.0392431168918143
 45     0.0673166920411431
 46     0.0240119523962477
 47    -0.0653301832163689
 48    -0.0246122786151476
 49     0.0809948208497334
 50     0.0302515645828342
 51    -0.0865972927025076
 52    -0.0320229604025728
 53     0.0884371168462089
 54     0.0326001684771848
 55    -0.0833420008904795
 56    -0.0310812708282387
 57     0.0643029326241482
 58     0.0242008681902934
 59    -0.0673020813892713
 60    -0.0239797385511078
 61     0.0920926771393802
 62     0.0398940684262659
 63    -0.0868924199917659
 64    -0.0438886189504457
 65     0.0495877465084632
 66     0.0153578595017586
 67    -0.0961472248958325
 68    -0.0366672638924440
 69    -0.0270792112811583
 70     0.1225657568749881
 71    -0.0345361084658473
 72     0.0192484218498067
 73     0.0027807727965345
 74    -0.2411995169051538
 75     0.0973422891124126
 76    -0.0037529901704479
 77    -0.1300055146761558
 78    -0.0317961136194386
 79     0.0196083755382647
 80     0.1693547492236712
 81     0.1291975647473179
 82    -0.0249633180588997
 83     0.0026322902010802
 84    -0.1714432807825780
 85    -0.1740344422973010
 86    -0.0223961551907043
 87     0.0100192841598380
 88    -0.0432755922264025
 89     0.1727822650844540
 90    -0.0220436644355533
 91     0.0144224035434687
 92     0.0399821677737200
 93    -0.0010204469417882
 94    -0.1975597843934717
 95     0.0683104542164718
 96    -0.0075279830648991
 97     0.0063245044674983
 98     0.2557091703531680
 99    -0.0108114523736673
 100    -0.0035271684262166
 101    -0.1643967024578071
 102     0.0362120024611607
 103     0.0028630269375364
 104     0.1137793179516937
 105     0.1681344601957229
 106     0.0245125658590807
 107    -0.0001500831458261
 108    -0.1104810502756975
 109    -0.1667787378349632
 110     0.0233683106353018
 111    -0.0000256478359154
 112    -0.1153015619111961
 113     0.1635680311984851
 114     0.0350569553213750
 115    -0.0025662062392886
 116     0.1187522049618806
 117    -0.0058149431562852
 118     0.2575494909031476
 119     0.0102217992641513
 120    -0.0027500767800693
 121     0.0009274519549187
 122    -0.1969247262191385
 123    -0.0676846745606075
 124    -0.0058732616643702
 125    -0.1746531097858969
 126    -0.0227097355708350
 127    -0.0144190448691892
 128     0.0363711666882260
 129     0.1751187969226863
 130    -0.0216668464681596
 131    -0.0099554367446372
 132    -0.0409391714568200
 133    -0.1295314783759959
 134    -0.0254716341043300
 135    -0.0025589831511512
 136    -0.1763687358190133
 137     0.1316614974001215
 138    -0.0318895742899869
 139    -0.0198492838857627
 140     0.1736491499935230
 141    -0.0026129181955081
 142    -0.2454757753490006
 143    -0.0988704602085087
 144    -0.0029430393880849
 145     0.0269163815337466
 146     0.1246984258042162
 147     0.0352163657074643
 148     0.0193650157627815
 149    -0.0036455429669112
 150     0.0005570580177426
 151     0.0001374541105827
 152    -0.0048543101097814
 153    -0.0003992530078911
 154    -0.0052229761695480
 155    -0.0089722437125461
 156    -0.0082538839572453
 157    -0.0053594941951917
 158    -0.0002909063617751
 159     0.0038743138174741
 160     0.0003308808187004
 161     0.0007573207424446
 162    -0.0004088195791457
 163     0.0101766242880280
 164    -0.0173585283888057
 165    -0.0047886036286801
 166    -0.0027629620697990
 167     0.0013764516001719
 168    -0.0007184670630090
 169    -0.0007349837220463
 170     0.0009652182721983
 171     0.0005369997285274
 172     0.0091345027861751
 173     0.0095282779641820
 174    -0.0057915955484411
 175    -0.0110134776308130
 176     0.0003277766065040
 177    -0.0028145190923097
 178     0.0003314273011530
 179    -0.0002107050450383
 180     0.0012794056353435
 181    -0.0136932067529381
 182    -0.0195056177879320
 183     0.0016042820311703
 184     0.0057305575369400
 Sym= 173A
 Ene= 0.896189
 Spin= Alpha
 Occup= 2.000000
  1     0.0000664543617850
  2     0.0039916934731942
  3    -0.0001613100225672
  4    -0.0016643790133836
  5    -0.0002211450951128
  6     0.0032021992438042
  7     0.0104782894847009
  8    -0.0094106022138849
  9     0.0018514105978206
 10    -0.0004217564193235
 11    -0.0012512258534913
 12    -0.0008295116826203
 13    -0.0007179006961688
 14    -0.0012340254395938
 15     0.0125674031215914
 16    -0.0097727182632006
 17    -0.0118675451751453
 18     0.0060754929692402
 19    -0.0008886694261382
 20    -0.0016360246613691
 21     0.0012405248043993
 22     0.0012337399963132
 23     0.0003453017007283
 24    -0.0183574772799825
 25     0.0195572654689201
 26    -0.0043329286342405
 27    -0.0109187115323568
 28     0.0042487625871056
 29     0.0001477786301938
 30    -0.0003443373018134
 31     0.0043934106343429
 32     0.0001865414654332
 33     0.0039717269178942
 34     0.0126579195597849
 35    -0.0068113657468520
 36    -0.0025100453458726
 37    -0.0874957896961851
 38    -0.0303640501687008
 39     0.0506692721610016
 40     0.0136214843832868
 41    -0.0464920212202124
 42    -0.0229822417118062
 43     0.0441569632425517
 44     0.0170697017829733
 45    -0.0182615466391070
 46    -0.0138329129133338
 47     0.0245879721638902
 48     0.0164024746754742
 49    -0.0086996607348807
 50     0.0044794255971192
 51     0.0075563173745478
 52    -0.0042978919130438
 53     0.0058454706989853
 54    -0.0051786780337273
 55    -0.0073459224042971
 56     0.0050041383539285
 57     0.0233119114305031
 58     0.0159231227227322
 59    -0.0192769665094066
 60    -0.0142744917986199
 61     0.0431448096585120
 62     0.0166397239944560
 63    -0.0447893379797690
 64    -0.0222763412337113
 65     0.0510216588579600
 66     0.0137633076145257
 67    -0.0873419822063207
 68    -0.0301784648061596
 69     0.0215118913054736
 70    -0.1213322038460638
 71     0.0333560800760785
 72    -0.0150285096894707
 73     0.0040026743124833
 74     0.2846050271874274
 75    -0.1148761917640725
 76     0.0092313610721719
 77     0.0571355888621926
 78     0.0866738974116323
 79    -0.0468487995874674
 80    -0.2391094155418469
 81    -0.0527913857699603
 82     0.0928298404340732
 83    -0.0295260740619190
 84     0.2485061513012681
 85     0.0992346126190137
 86    -0.0482227369200705
 87     0.0081922210542167
 88    -0.1312188298326381
 89    -0.1048919581076716
 90    -0.0584369147617749
 91     0.0272010638961739
 92     0.1348639710478956
 93    -0.0037909636850574
 94    -0.0323111897315105
 95     0.0285882525072734
 96     0.0018769742407068
 97    -0.0002370979066174
 98    -0.2171912668802479
 99    -0.0048672168763423
 100     0.0034370510370312
 101    -0.0216306789072972
 102    -0.1045701798664873
 103     0.0001465614717078
 104    -0.2157909599039404
 105     0.0218116851583018
 106    -0.0997833777867388
 107     0.0048155602488130
 108     0.2184586120605787
 109     0.0260339956867748
 110     0.0988796377808316
 111     0.0044384365734910
 112    -0.2152631978093748
 113    -0.0264230461834213
 114     0.1022658050372784
 115     0.0003437575382059
 116     0.2128311044525888
 117     0.0006936451648265
 118     0.2092733721369847
 119    -0.0057347782788236
 120    -0.0035786135284806
 121    -0.0022490096795354
 122     0.0397849084954634
 123     0.0312196909451660
 124    -0.0003491147329656
 125    -0.1010868120421126
 126     0.0594034569718929
 127     0.0279340069926787
 128    -0.1371879458579293
 129     0.0964271046336807
 130     0.0532915162843333
 131     0.0100504710751133
 132     0.1347955591271134
 133    -0.0518424801346574
 134    -0.0936809677618662
 135    -0.0296385073143868
 136    -0.2472056550160846
 137     0.0552056745010114
 138    -0.0885381861857535
 139    -0.0477282047409869
 140     0.2395833371997112
 141     0.0032556186077470
 142    -0.2843756151840575
 143    -0.1145369865782714
 144    -0.0083457516884852
 145     0.0213439436696175
 146     0.1213676798292416
 147     0.0335550963121206
 148     0.0146395580585050
 149    -0.0041905397514534
 150     0.0002931344213007
 151    -0.0003554364769647
 152    -0.0044187965699045
 153     0.0002508731951328
 154     0.0044079281145378
 155    -0.0127579441160263
 156    -0.0071587482493481
 157     0.0031722259206178
 158    -0.0000344646213447
 159     0.0039696618339696
 160    -0.0002225734401396
 161     0.0016544102309510
 162    -0.0002857439384884
 163     0.0030452954175809
 164    -0.0103793639861275
 165    -0.0093794042108309
 166    -0.0015655246132371
 167     0.0003702018850852
 168    -0.0012304163237887
 169    -0.0008433217607405
 170     0.0007101875062209
 171    -0.0012214136107777
 172     0.0123707168927590
 173     0.0098663076245186
 174    -0.0114958053176304
 175    -0.0061409965141502
 176     0.0009295523761100
 177    -0.0016621500849504
 178     0.0013115996286376
 179    -0.0012180625609519
 180     0.0002576981489200
 181    -0.0184923351721986
 182    -0.0196134510540922
 183    -0.0042438205395058
 184     0.0113145916309473
 Sym= 174A
 Ene= 0.934113
 Spin= Alpha
 Occup= 2.000000
  1     0.0004250467795206
  2    -0.0030401023944105
  3     0.0011338402065590
  4     0.0020665547284728
  5     0.0006084069302145
  6     0.0054025974758921
  7    -0.0013701496879899
  8     0.0112589812388279
  9     0.0024352851569468
 10    -0.0007367975275880
 11     0.0012552391012237
 12     0.0007216366272944
 13     0.0002246999592486
 14     0.0024591223803679
 15    -0.0111394536225208
 16     0.0082863389656187
 17     0.0122790773339284
 18    -0.0007962764229163
 19     0.0013670374837981
 20     0.0004543583620510
 21    -0.0022071241528357
 22    -0.0017275689859395
 23     0.0010680198328518
 24     0.0190280389047554
 25    -0.0157850001610544
 26     0.0074299515194861
 27     0.0148498571261019
 28    -0.0037838863989516
 29    -0.0002530396031840
 30     0.0004694556753679
 31    -0.0032045011102835
 32    -0.0012355047721921
 33    -0.0138570088390041
 34    -0.0120854690617787
 35     0.0072478378668925
 36     0.0140388285510613
 37     0.0629714324262215
 38     0.0198072238124278
 39    -0.0405631400742554
 40    -0.0093157785298861
 41    -0.0021656432022014
 42     0.0008986871605678
 43     0.0098696742286624
 44     0.0059954320882080
 45     0.0020056848995374
 46     0.0044252547425849
 47    -0.0140672754167964
 48    -0.0088261385618319
 49    -0.0231314799906365
 50    -0.0148500251722919
 51     0.0273610008211420
 52     0.0152458700519657
 53    -0.0270433109571116
 54    -0.0152096389940627
 55     0.0236488542931517
 56     0.0149361668714454
 57     0.0134531190990566
 58     0.0084939789969340
 59    -0.0036107684254947
 60    -0.0049073110556421
 61    -0.0106725805098681
 62    -0.0062671436959846
 63     0.0039024053789479
 64    -0.0002163757492164
 65     0.0402259150348476
 66     0.0092578382673568
 67    -0.0621312902985280
 68    -0.0194258121700976
 69    -0.0159251951414721
 70     0.0930359058250324
 71    -0.0247795245115674
 72     0.0073458357004698
 73    -0.0071894237552011
 74    -0.2450541496329123
 75     0.0988361687596024
 76    -0.0134674020044920
 77     0.0073661887794438
 78    -0.1158304474134398
 79     0.0598618526347147
 80     0.2160740270012381
 81    -0.0077966515224970
 82    -0.1308780336267674
 83     0.0490993554151764
 84    -0.2214349482728865
 85     0.0047970304738001
 86     0.1244647864069149
 87    -0.0401003210866695
 88     0.2280942254476388
 89    -0.0006052062413399
 90     0.1402001439417274
 91    -0.0725249469192780
 92    -0.2213583405521270
 93     0.0061736959542953
 94     0.2701402175036008
 95    -0.1085145843630414
 96     0.0020805592012561
 97    -0.0024702793761876
 98    -0.1621338684358850
 99     0.0151174264276578
 100     0.0011682431555961
 101     0.0849885387222340
 102    -0.0352748810060040
 103    -0.0057844486180402
 104    -0.0583258734584784
 105    -0.0871993132461502
 106    -0.0291746598820548
 107    -0.0035768846340531
 108     0.0577428971858822
 109     0.0868087647933624
 110    -0.0315632474992021
 111     0.0037665012447250
 112     0.0619356029167241
 113    -0.0850145143740196
 114    -0.0372383001514549
 115     0.0057304357884019
 116    -0.0627099532252448
 117     0.0025736891297819
 118    -0.1671961300674269
 119    -0.0149712990961223
 120     0.0015211411925910
 121    -0.0045383184906225
 122     0.2733890729690632
 123     0.1090642846855080
 124     0.0030243110640593
 125     0.0040035475892978
 126     0.1396019075771569
 127     0.0722338481598175
 128    -0.2197966102217358
 129    -0.0070557708296997
 130     0.1279876659438130
 131     0.0414697634690443
 132     0.2278148673960841
 133     0.0079780382349971
 134    -0.1300876010699210
 135    -0.0485121655418196
 136    -0.2169125225757159
 137    -0.0090447995422764
 138    -0.1161048806999129
 139    -0.0599137333623884
 140     0.2134911233538272
 141     0.0064778564253517
 142    -0.2417192277668126
 143    -0.0972494703065621
 144    -0.0126871752959442
 145     0.0157061264868983
 146     0.0918685707501073
 147     0.0246561267733074
 148     0.0069587940537920
 149    -0.0036808978706323
 150     0.0003520217591044
 151    -0.0004822489454333
 152    -0.0031796654008060
 153     0.0012427773277800
 154     0.0137790581877183
 155    -0.0119569896507190
 156    -0.0073820920378195
 157     0.0141249483693934
 158     0.0004340675779140
 159     0.0029914412524345
 160    -0.0011450275799113
 161     0.0020165095256519
 162    -0.0006437386477699
 163    -0.0052623029350164
 164    -0.0014523203937544
 165    -0.0109971632803087
 166     0.0025385158092796
 167    -0.0007453214576142
 168    -0.0012195517126937
 169    -0.0007214084383036
 170     0.0002329433692306
 171    -0.0023871841173539
 172     0.0108400910065527
 173     0.0082043304530539
 174    -0.0117977355805940
 175    -0.0009248969920654
 176     0.0013673933258748
 177    -0.0004869122110964
 178     0.0022080113918139
 179    -0.0016826680634052
 180    -0.0010868102986891
 181    -0.0188382805812124
 182    -0.0156588110513318
 183    -0.0072172192381712
 184     0.0148276388908538
 Sym= 175A
 Ene= 0.964036
 Spin= Alpha
 Occup= 2.000000
  1     0.0006223535880205
  2    -0.0013932499854114
  3     0.0013749974633981
  4     0.0013428235870470
  5     0.0009150355002923
  6     0.0070522354211407
  7     0.0026572913676068
  8     0.0073503283033828
  9     0.0045500247859443
 10    -0.0011919146952087
 11     0.0005911171398723
 12     0.0004068126027182
 13    -0.0000705634178489
 14     0.0020721674949129
 15    -0.0042771831397078
 16     0.0047768875653302
 17     0.0056348460304180
 18     0.0024313903882951
 19     0.0011710321584237
 20     0.0000407548439711
 21    -0.0019962819648754
 22    -0.0011315237654675
 23     0.0015337071924682
 24     0.0123572803285629
 25    -0.0087040406282264
 26     0.0050888883006388
 27     0.0117265228563389
 28    -0.0020392076050706
 29    -0.0001784704289745
 30     0.0002463215798252
 31    -0.0016523381887713
 32    -0.0015088928886722
 33    -0.0148413119214509
 34    -0.0069854096885407
 35     0.0050045737264905
 36     0.0163777129912121
 37     0.0314814963854945
 38     0.0092017030317812
 39    -0.0220763574354898
 40    -0.0044436304987506
 41    -0.0154179790885213
 42    -0.0050991947738440
 43     0.0234952594572327
 44     0.0106537447183470
 45     0.0056542953858803
 46    -0.0024636398229066
 47    -0.0173020951295568
 48    -0.0021143528214952
 49     0.0283521527423443
 50     0.0085671406558274
 51    -0.0264179126459556
 52    -0.0087183690823538
 53    -0.0270833276676966
 54    -0.0088822494195651
 55     0.0277874217257318
 56     0.0084385472930358
 57    -0.0169906520672599
 58    -0.0020174435896291
 59     0.0065448479883619
 60    -0.0021638963723828
 61     0.0237417497694268
 62     0.0106975210656521
 63    -0.0159858513656711
 64    -0.0053095717903077
 65    -0.0217433824750588
 66    -0.0043726559856186
 67     0.0309818684945131
 68     0.0090022748676395
 69    -0.0091702585220400
 70     0.0489089184681795
 71    -0.0126589509914334
 72     0.0012928337869337
 73    -0.0064078960438821
 74    -0.1383330514762348
 75     0.0558243242139605
 76    -0.0116864440070738
 77     0.0227959935862533
 78    -0.0790567334923850
 79     0.0407047046105805
 80     0.1241851261614479
 81    -0.0195096499147760
 82    -0.0943983224193405
 83     0.0379832379300928
 84    -0.1231359817355195
 85     0.0369373209186106
 86     0.1071725672676417
 87    -0.0395834627952628
 88     0.1697892980670001
 89    -0.0371125265219735
 90     0.1222739253164295
 91    -0.0653838159142875
 92    -0.1585708668018419
 93     0.0054648093007353
 94     0.2589847508382779
 95    -0.0935744337235861
 96     0.0002349247121711
 97    -0.0003294829218532
 98    -0.3215132423437860
 99     0.0107201552549687
 100     0.0031394659066217
 101     0.0096111717671106
 102    -0.1741458232198200
 103    -0.0055867506139800
 104    -0.2161737839299958
 105    -0.0102676554608285
 106    -0.1674463734429797
 107     0.0017182069966256
 108     0.2212481669938701
 109    -0.0096466800687034
 110     0.1678095279236754
 111     0.0010431753011661
 112    -0.2201323815199333
 113     0.0081431844000234
 114     0.1723753969917648
 115    -0.0056185563993632
 116     0.2159947474595779
 117     0.0003749949936277
 118     0.3196360569759240
 119     0.0101217001596364
 120    -0.0040796228920534
 121     0.0047267321175491
 122    -0.2584451448945276
 123    -0.0929273909183331
 124    -0.0005858086615560
 125    -0.0384412607544989
 126    -0.1211393737783050
 127    -0.0646750228300040
 128     0.1564948074522716
 129     0.0374825400081392
 130    -0.1081945036343603
 131    -0.0399286379483668
 132    -0.1683982547512975
 133    -0.0191649433113569
 134     0.0935522810551772
 135     0.0374209280751289
 136     0.1200134459032512
 137     0.0234847365048334
 138     0.0784275154721644
 139     0.0403752660479851
 140    -0.1223377046148940
 141    -0.0061187320025765
 142     0.1359264107046123
 143     0.0546995978475269
 144     0.0114431799688735
 145    -0.0091254146774688
 146    -0.0480947024034714
 147    -0.0125852415562495
 148    -0.0010596899523148
 149     0.0019649097269100
 150    -0.0002212642798053
 151     0.0002579470376505
 152     0.0016314367879351
 153    -0.0014836707928895
 154    -0.0145505456394105
 155     0.0068754640176231
 156     0.0049968517470820
 157    -0.0161367847795183
 158    -0.0006150777166326
 159    -0.0013633128882623
 160     0.0013546492731069
 161    -0.0012963374880169
 162     0.0009197282145770
 163     0.0067926636073288
 164    -0.0024780716963702
 165     0.0071039857693445
 166    -0.0044953132790740
 167     0.0011743019123100
 168     0.0005652640729723
 169     0.0004041454194614
 170     0.0000569346344746
 171     0.0020001915755870
 172    -0.0040787019482345
 173    -0.0046911793496129
 174     0.0053076325028687
 175    -0.0022896055587263
 176    -0.0011561263676954
 177     0.0000710908359176
 178    -0.0019671335464415
 179     0.0010913772654310
 180     0.0015134109674943
 181     0.0121355904523145
 182     0.0085941476548025
 183     0.0049015074771754
 184    -0.0115635413556897
 Sym= 176A
 Ene= 0.987492
 Spin= Alpha
 Occup= 2.000000
  1    -0.0079160666731224
  2    -0.0170859061507187
  3    -0.0101016361581025
  4     0.0140116889897506
  5    -0.0179161685244071
  6     0.0193570143995471
  7     0.0033906353779077
  8     0.0573413594835086
  9    -0.0376643704142613
 10     0.0212388544152075
 11     0.0172041087803300
 12     0.0000277542248100
 13     0.0022293592025358
 14    -0.0019890083780809
 15    -0.1917893068329684
 16    -0.0048634092483436
 17     0.1914304413721188
 18    -0.0915896121684483
 19    -0.0078874383401162
 20    -0.0134827939234299
 21     0.0100133720858471
 22    -0.0147394771935059
 23    -0.0208437179414051
 24     0.0414791033020674
 25    -0.0317416493017837
 26     0.0637783879489034
 27    -0.0374902042478021
 28    -0.0212118809843947
 29    -0.0142004234358448
 30     0.0012024409682037
 31     0.0006597705598967
 32     0.0135556511056645
 33     0.1414151735577631
 34     0.0003634201012044
 35     0.0719400819620961
 36    -0.1467214852268236
 37    -0.0143533260681452
 38    -0.0058280563445101
 39    -0.0171402201254010
 40    -0.0044068262616222
 41    -0.0903703664322497
 42    -0.0347773830693448
 43    -0.0763368247536729
 44    -0.0357479745484253
 45     0.0655128365739804
 46     0.0302511953932105
 47     0.0649176406935984
 48     0.0297372759310275
 49     0.1060797744352065
 50     0.0415893543078130
 51     0.1072158966390200
 52     0.0420333792412857
 53    -0.1059809083966963
 54    -0.0416745920621558
 55    -0.1066308022169905
 56    -0.0418244152378697
 57    -0.0659850668487236
 58    -0.0301489656357768
 59    -0.0663065731469987
 60    -0.0304120397530015
 61     0.0771281390358315
 62     0.0359568621104519
 63     0.0919887893297316
 64     0.0353485541674581
 65     0.0170393696668866
 66     0.0044808186527952
 67     0.0147243781339429
 68     0.0059652937938884
 69     0.0404534648868824
 70     0.0007885913786420
 71     0.0257911066842715
 72     0.0540819628807665
 73     0.0787812276642515
 74    -0.0051108652999494
 75    -0.0042280147087694
 76     0.1493314051470183
 77    -0.0452719676277611
 78    -0.1407621762386191
 79     0.0544420928916300
 80    -0.0733663008778268
 81    -0.0534254617612686
 82     0.1318467073444886
 83    -0.0629780795501187
 84    -0.0734718287602393
 85     0.0577687853514114
 86     0.1212427888792351
 87    -0.0558124930074692
 88    -0.0518788655619430
 89     0.0597669154252150
 90    -0.1162421412455066
 91     0.0494490038681656
 92    -0.0669996942419012
 93    -0.1249121584112373
 94     0.0039758583709669
 95     0.0020594926200797
 96     0.0749454261592490
 97    -0.1459598002641985
 98    -0.0015436960374298
 99    -0.0029603139636176
 100    -0.1478978129311553
 101     0.0636408939548287
 102    -0.1922042013395810
 103    -0.0045182805721012
 104     0.0752561068150420
 105     0.0630352650356484
 106     0.1954790776523210
 107     0.0013902314333766
 108     0.0704306221096166
 109    -0.0631527781688593
 110     0.1935885246829835
 111    -0.0017986416118592
 112     0.0706716086310649
 113    -0.0630060068757467
 114    -0.1926805086508123
 115     0.0049958456206328
 116     0.0751094145636037
 117     0.1453993959411160
 118    -0.0024033098996647
 119     0.0026280637033723
 120    -0.1469019113210301
 121     0.1262285497675854
 122     0.0045991958624996
 123    -0.0018938108582148
 124     0.0765928627960171
 125    -0.0592975744092699
 126    -0.1178693368198078
 127    -0.0499340009403451
 128    -0.0667560333512835
 129    -0.0589458901046905
 130     0.1229440803373681
 131     0.0564699615295696
 132    -0.0523960799845244
 133     0.0533437789101497
 134     0.1330184554297051
 135     0.0633368784716344
 136    -0.0731263426230663
 137     0.0446321105646844
 138    -0.1422371940879298
 139    -0.0547341989712484
 140    -0.0746415447505977
 141    -0.0792042884647304
 142    -0.0040901090035238
 143     0.0044918305141488
 144     0.1501079777705803
 145    -0.0406652921731423
 146     0.0007537768354523
 147    -0.0261077181764593
 148     0.0541219846923673
 149    -0.0212439651356175
 150     0.0142379400914871
 151    -0.0012731564766031
 152     0.0007747925595009
 153    -0.0135381689381249
 154    -0.1413737501449411
 155     0.0003927955266769
 156    -0.0720927126895835
 157    -0.1466446163288560
 158    -0.0079183724832785
 159     0.0171707072969657
 160     0.0100960088449009
 161     0.0140296280373709
 162     0.0178732629450116
 163    -0.0191569012273795
 164     0.0030096828405710
 165    -0.0573851164340955
 166    -0.0376347587375397
 167     0.0212448701267413
 168    -0.0172265781458085
 169    -0.0000314055617054
 170     0.0022962596340212
 171     0.0019587263862972
 172     0.1919956050645520
 173    -0.0049669708502500
 174    -0.1916836486105752
 175    -0.0915735329259706
 176    -0.0078884504334215
 177     0.0134400208172095
 178    -0.0099978540203202
 179    -0.0147773463256508
 180     0.0208899328484888
 181    -0.0419770967691473
 182    -0.0322955118930198
 183    -0.0639888878773943
 184    -0.0374119077814820
 Sym= 177A
 Ene= 0.994802
 Spin= Alpha
 Occup= 2.000000
  1     0.0139595040214506
  2     0.0260209162223246
  3     0.0178766842749313
  4    -0.0250573972791676
  5     0.0351201195466393
  6    -0.0562084261006349
  7    -0.0351901164242645
  8    -0.1045964780110133
  9     0.0656518883841792
 10    -0.0390704145864968
 11    -0.0302226009259892
 12    -0.0001065273903455
 13     0.0010108900862904
 14     0.0062793458087390
 15     0.3422939183254102
 16    -0.0030949580466346
 17    -0.3352230571750213
 18     0.1777002893630588
 19     0.0138922632962749
 20     0.0273797783363646
 21    -0.0178402797237383
 22     0.0246856344487422
 23     0.0337270510407103
 24    -0.0470887777508916
 25     0.0235668402593940
 26    -0.1012883616044828
 27     0.0647606851078144
 28     0.0358441207958851
 29     0.0263108362816076
 30     0.0007963684983114
 31     0.0003097437970523
 32    -0.0255688910372788
 33    -0.2620202058267432
 34     0.0012199048030040
 35    -0.1392415839775603
 36     0.2629016496223385
 37     0.0072762381395652
 38    -0.0039165295091897
 39     0.0125140666585660
 40    -0.0046655251058413
 41     0.0215819522841620
 42     0.0096166209697870
 43    -0.0028914058911732
 44     0.0118048098338688
 45    -0.0231431501051740
 46    -0.0074753471717362
 47    -0.0213044724764966
 48    -0.0069601418437673
 49     0.0038695609390281
 50     0.0001351759047704
 51     0.0045087021080667
 52     0.0002984613147132
 53     0.0065443850604993
 54     0.0010723012236663
 55     0.0059416199724094
 56     0.0009125264726003
 57    -0.0204128840567092
 58    -0.0065102203102495
 59    -0.0221945569483332
 60    -0.0070015882166644
 61    -0.0047378456567110
 62     0.0114989461134881
 63     0.0202360771574504
 64     0.0092096503581566
 65     0.0122371697505014
 66    -0.0050612217049641
 67     0.0071448551472425
 68    -0.0043883813770380
 69     0.0244871712538487
 70    -0.0022274490696529
 71    -0.0358855580613055
 72    -0.0288417415850144
 73    -0.0259698355580547
 74    -0.0001831754780063
 75     0.0162158895950128
 76    -0.0283836350333660
 77     0.0091485263252355
 78     0.0314333073271979
 79    -0.0120371994661237
 80     0.0241763902027861
 81     0.0198927163033477
 82    -0.0214748597289292
 83     0.0175602518072073
 84     0.0184905980790359
 85    -0.0164919896428661
 86    -0.0362638958811857
 87     0.0173866515715462
 88     0.0186738291208779
 89    -0.0147497470075642
 90     0.0316533188407069
 91    -0.0141533632551714
 92     0.0231410095169569
 93     0.0173220693115899
 94    -0.0033653327077328
 95    -0.0006502362865210
 96    -0.0407574429226251
 97     0.0115657168080921
 98     0.0029340768160102
 99    -0.0007658277315060
 100    -0.0159070338199566
 101    -0.0024953029652031
 102    -0.0013473970861338
 103    -0.0001450663866822
 104     0.0035383567190410
 105    -0.0019692362986907
 106     0.0047080960089385
 107     0.0002875460063726
 108    -0.0000768149284377
 109    -0.0006832753765133
 110    -0.0083817436343842
 111     0.0003409895012426
 112    -0.0014159684256018
 113    -0.0012215239958151
 114     0.0050110443822051
 115    -0.0002483006895801
 116    -0.0051253597522666
 117     0.0090906038715801
 118    -0.0028869867112379
 119    -0.0008154835494656
 120     0.0189882499732379
 121     0.0153289876518543
 122     0.0033374962703392
 123    -0.0006138116185334
 124     0.0400550828712807
 125    -0.0135685398309633
 126    -0.0300832873000365
 127    -0.0134685130376571
 128    -0.0217619013321170
 129    -0.0156877062094574
 130     0.0345395617073898
 131     0.0165619724986011
 132    -0.0178867565185726
 133     0.0188161462871363
 134     0.0190979344667574
 135     0.0167530255265926
 136    -0.0169697234464785
 137     0.0079895121887648
 138    -0.0291765269943254
 139    -0.0110565030387045
 140    -0.0231799212121744
 141    -0.0253367981865872
 142     0.0004008223953874
 143     0.0170690742547829
 144     0.0254169898985717
 145     0.0273046172151205
 146     0.0025118878130152
 147    -0.0370246364924927
 148     0.0286827494011046
 149    -0.0370347850648014
 150     0.0272675641633585
 151     0.0006674359895732
 152    -0.0001148121506103
 153    -0.0266429307407402
 154    -0.2728398929301198
 155    -0.0011887376348594
 156    -0.1441841680929309
 157    -0.2737259281644425
 158    -0.0145280893045092
 159     0.0270348167528071
 160     0.0186559050107583
 161     0.0258492469516680
 162     0.0364002339948405
 163    -0.0568391111323640
 164     0.0351313386567426
 165    -0.1077157515408305
 166    -0.0686090840860344
 167     0.0406110386683125
 168    -0.0312786744160677
 169    -0.0001146068774913
 170    -0.0009162506096808
 171     0.0067059330902170
 172     0.3545149334351032
 173     0.0029859737771525
 174    -0.3469282966939783
 175    -0.1847145477014782
 176    -0.0144552522844594
 177     0.0282008442910735
 178    -0.0186015349446874
 179    -0.0255031581270092
 180     0.0351311191075454
 181    -0.0487374038198236
 182    -0.0248855430030282
 183    -0.1046132649349194
 184    -0.0676249880281330
 Sym= 178A
 Ene= 0.997517
 Spin= Alpha
 Occup= 2.000000
  1    -0.0136252723959837
  2    -0.0237063389343565
  3    -0.0175060117728478
  4     0.0245615868473757
  5    -0.0357017052298300
  6     0.0635999287813708
  7     0.0459885310380936
  8     0.1034327310492671
  9    -0.0638081088571727
 10     0.0387587507680758
 11     0.0294209804360071
 12     0.0001182165955567
 13    -0.0029942256185357
 14    -0.0072385558646250
 15    -0.3353209268164652
 16     0.0077118088570811
 17     0.3259283349607962
 18    -0.1795231984583518
 19    -0.0136033478126905
 20    -0.0281569653605307
 21     0.0175802670566822
 22    -0.0235126092811083
 23    -0.0317649110301332
 24     0.0348495962649077
 25    -0.0096638821655759
 26     0.0941066909768981
 27    -0.0633389998435934
 28    -0.0343322994456426
 29    -0.0260877203662164
 30    -0.0020408422480895
 31    -0.0009109661699639
 32     0.0256563389668940
 33     0.2608804187904025
 34    -0.0013498739555603
 35     0.1400911539622941
 36    -0.2587903111139134
 37    -0.0002677951504018
 38     0.0089798436044559
 39    -0.0056460178084613
 40     0.0091453411063296
 41     0.0303980011943830
 42     0.0095438343544500
 43     0.0538361661043337
 44     0.0071119261927571
 45    -0.0176204037043687
 46    -0.0097266759394170
 47    -0.0196071340504824
 48    -0.0102162558044760
 49    -0.0504517782285799
 50    -0.0187457835035438
 51    -0.0508678883157698
 52    -0.0188221711624779
 53     0.0499170670551376
 54     0.0186195142068893
 55     0.0503354190008602
 56     0.0188077280613698
 57     0.0216429251983763
 58     0.0109091038237937
 59     0.0196958201666269
 60     0.0103534206469634
 61    -0.0542447934795959
 62    -0.0078470713873305
 63    -0.0327443533400952
 64    -0.0104155525219310
 65     0.0045586702784070
 66    -0.0090892239719178
 67    -0.0004819373627579
 68    -0.0090972241375136
 69    -0.0597118950228862
 70     0.0024078246030607
 71     0.0314179590594868
 72     0.0030489563637218
 73    -0.0162237196664420
 74     0.0041487178735187
 75    -0.0194272686819921
 76    -0.0606624127522510
 77     0.0204244914815668
 78     0.0506127046376640
 79    -0.0196413044068322
 80     0.0186013297664845
 81     0.0118191442835817
 82    -0.0572599289860403
 83     0.0177180098519248
 84     0.0274668676952943
 85    -0.0175356850044335
 86    -0.0361763130010863
 87     0.0161517367018861
 88     0.0137700676828377
 89    -0.0202347865053537
 90     0.0374292831237028
 91    -0.0150032168017207
 92     0.0200784097283319
 93     0.0485092751093422
 94    -0.0001843512800771
 95    -0.0006820516580185
 96    -0.0118514836278282
 97     0.0593591291684471
 98    -0.0001678614225898
 99     0.0018209017747826
 100     0.0773404609072793
 101    -0.0313617053786144
 102     0.0888182627960047
 103     0.0021022958353853
 104    -0.0400124706830442
 105    -0.0318995805957307
 106    -0.0909754958691452
 107    -0.0008353633744029
 108    -0.0371343770438130
 109     0.0320488251143903
 110    -0.0896735755741026
 111     0.0010017996154690
 112    -0.0371584294763531
 113     0.0312106504753474
 114     0.0887654572025682
 115    -0.0023121834741702
 116    -0.0396554539922486
 117    -0.0598666423910863
 118     0.0003827331084780
 119    -0.0016089827902354
 120     0.0755955231592702
 121    -0.0502349012848529
 122    -0.0006476555616593
 123     0.0006915953009902
 124    -0.0155914243852015
 125     0.0212730266243558
 126     0.0404142135888672
 127     0.0162326961209090
 128     0.0219011284986147
 129     0.0193038743132267
 130    -0.0395355829952936
 131    -0.0177205308088009
 132     0.0155521277177880
 133    -0.0135443740368368
 134    -0.0595188670945697
 135    -0.0190040475705585
 136     0.0288505507541727
 137    -0.0211207499803102
 138     0.0535842817566777
 139     0.0207310123886406
 140     0.0210536825965404
 141     0.0177385125152124
 142     0.0035632491002703
 143     0.0187713009329983
 144    -0.0635693509954322
 145     0.0597347636202191
 146     0.0025872825213362
 147    -0.0296903069067984
 148     0.0014049743814112
 149    -0.0327329730038276
 150     0.0249692849974931
 151     0.0018040386977729
 152    -0.0006891145219229
 153    -0.0247816071009661
 154    -0.2516556884748960
 155    -0.0012192814674250
 156    -0.1339555634706535
 157    -0.2496631497152980
 158    -0.0131330735631574
 159     0.0227440495281465
 160     0.0169452776782997
 161     0.0233711543410090
 162     0.0342457116127031
 163    -0.0592751764308125
 164     0.0426234983282750
 165    -0.0982129129707004
 166    -0.0619003664319971
 167     0.0372877062347313
 168    -0.0281220520979354
 169    -0.0001162848348788
 170    -0.0027483016334488
 171     0.0072078380892019
 172     0.3208814905737147
 173     0.0071810811037380
 174    -0.3115240941508216
 175    -0.1727249043562158
 176    -0.0131088846007066
 177     0.0267883207145682
 178    -0.0170018791916498
 179    -0.0224020107152410
 180     0.0306337184517972
 181    -0.0329610283765636
 182    -0.0094616311397116
 183    -0.0895751441226537
 184    -0.0614052143503793
 Sym= 179A
 Ene= 1.019096
 Spin= Alpha
 Occup= 2.000000
  1     0.0035236102789977
  2     0.0012139930781606
  3     0.0048890436087797
  4    -0.0064388305917618
  5     0.0132111930559213
  6    -0.0399193387846151
  7    -0.0435802333437246
  8    -0.0303021570424779
  9     0.0160204073569196
 10    -0.0115566073257203
 11    -0.0072059934365248
 12    -0.0000228854799001
 13     0.0064838457686915
 14     0.0048290963767123
 15     0.0874147943370922
 16    -0.0151410822572867
 17    -0.0788766060940985
 18     0.0601748880176867
 19     0.0039550967662791
 20     0.0111581588205562
 21    -0.0055983319265556
 22     0.0041224577514227
 23     0.0054031259363961
 24     0.0257712243653731
 25    -0.0363866324651397
 26    -0.0095762874281961
 27     0.0209560063215568
 28     0.0070009219331662
 29     0.0071890273775103
 30     0.0046253724555288
 31     0.0020781012721732
 32    -0.0087186272403877
 33    -0.0816810441451050
 34    -0.0029002719591821
 35    -0.0424909956562742
 36     0.0761564438045069
 37    -0.0169726076503639
 38    -0.0131442788586821
 39    -0.0123810565907095
 40    -0.0122506302314227
 41    -0.1201833051759713
 42    -0.0417919085210947
 43    -0.1252544960744295
 44    -0.0406038631824611
 45     0.1221807465049614
 46     0.0397806347587896
 47     0.1236460690740405
 48     0.0401645640351880
 49    -0.0246867796547065
 50    -0.0020013263035507
 51    -0.0254651301003204
 52    -0.0022983747580040
 53    -0.0273594132999199
 54    -0.0029757413386893
 55    -0.0267537015751993
 56    -0.0027021494626686
 57     0.1238642674612548
 58     0.0401491153635489
 59     0.1219522764945118
 60     0.0395689252657457
 61    -0.1242455817489629
 62    -0.0402858848387720
 63    -0.1206806884302643
 64    -0.0419033724600014
 65    -0.0126800501703772
 66    -0.0122076621527003
 67    -0.0175421520170683
 68    -0.0132563424929457
 69     0.0949329664401570
 70    -0.0020053820767944
 71     0.0006215830861491
 72     0.0557955907279324
 73     0.0920694549755698
 74    -0.0089143832333725
 75     0.0133199314303742
 76     0.2141534959276344
 77    -0.0874332814441131
 78    -0.1908617919942231
 79     0.0728171472503315
 80    -0.1172956272417202
 81    -0.0903104800348303
 82     0.1863958952863835
 83    -0.0819823062863421
 84    -0.1262844780040183
 85     0.0869344668895558
 86     0.1905060186062031
 87    -0.0904912013577524
 88    -0.1068251341252502
 89     0.0884192518832086
 90    -0.1828817644299264
 91     0.0773541876794644
 92    -0.1340054278199478
 93    -0.0928576075856844
 94     0.0092566911065251
 95     0.0078722086942103
 96     0.2180373174901698
 97    -0.0566262681935426
 98    -0.0051862136444549
 99     0.0034593445569290
 100     0.0881627964323853
 101     0.0100219879012672
 102     0.0189801554014343
 103     0.0011602661807170
 104    -0.0154044944403066
 105     0.0081970879733520
 106    -0.0255110499193731
 107    -0.0015096276786092
 108    -0.0086142822240757
 109     0.0066713365470308
 110     0.0288871698977138
 111    -0.0016210604381730
 112     0.0105106006054204
 113     0.0085698509973673
 114    -0.0224452177648702
 115     0.0013098806252595
 116     0.0174075523919413
 117    -0.0552694564865089
 118     0.0051013240650358
 119     0.0034876118664649
 120    -0.0920108710681378
 121    -0.0919273169283212
 122    -0.0093543176696602
 123     0.0078935548792092
 124    -0.2196450910453350
 125     0.0870048404596405
 126     0.1833639006131559
 127     0.0772738047608833
 128     0.1321555507877968
 129     0.0875529554922406
 130    -0.1903095420722068
 131    -0.0902542691093566
 132     0.1072502664680726
 133    -0.0894319428360828
 134    -0.1853859037396580
 135    -0.0814089508513112
 136     0.1242482734120990
 137    -0.0859406080674270
 138     0.1901001105363257
 139     0.0721578328775959
 140     0.1181165314264736
 141     0.0911335114019769
 142     0.0071085047235016
 143     0.0127688281542738
 144    -0.2125210048296425
 145     0.0941443343376333
 146     0.0022177166276958
 147     0.0013678710126817
 148    -0.0552379936306020
 149    -0.0065533796225267
 150     0.0068503536342543
 151     0.0044272735614365
 152    -0.0019753580675720
 153    -0.0086893858397130
 154    -0.0809453375956947
 155     0.0028428517707418
 156    -0.0403809753044667
 157    -0.0758446517907172
 158    -0.0034991566442821
 159     0.0010792648046547
 160     0.0049452402727881
 161     0.0060262826679214
 162     0.0129081335715364
 163    -0.0370833792712710
 164     0.0411761369492046
 165    -0.0283116297171155
 166    -0.0164726892158524
 167     0.0113347286313041
 168    -0.0068675470082702
 169    -0.0000214082123973
 170    -0.0062499610830920
 171     0.0049999494528335
 172     0.0838159409214385
 173     0.0146059627383655
 174    -0.0751357430481732
 175    -0.0589082905276122
 176    -0.0039159634980755
 177     0.0106599086153898
 178    -0.0056304010483419
 179    -0.0037912261287303
 180     0.0053854567370105
 181     0.0262491569201569
 182     0.0358849360341031
 183    -0.0083046750983325
 184    -0.0212669697941675
 Sym= 180A
 Ene= 1.044285
 Spin= Alpha
 Occup= 2.000000
  1    -0.0010560650603100
  2     0.0034721329059723
  3    -0.0019675640996579
  4     0.0016488935595626
  5    -0.0067463735403420
  6     0.0271894124783188
  7     0.0345527578433992
  8     0.0109181585919905
  9    -0.0049932534016513
 10     0.0042199509191240
 11     0.0015568669323864
 12    -0.0000542422134353
 13    -0.0061292333477827
 14    -0.0033437094628938
 15    -0.0222578352649681
 16     0.0139291847968739
 17     0.0165503029086172
 18    -0.0232307141194169
 19    -0.0018355388384158
 20    -0.0058827485292182
 21     0.0030782247791386
 22     0.0006386372560480
 23     0.0000123312333550
 24    -0.0371782645773474
 25     0.0407959659872024
 26    -0.0096957672910782
 27    -0.0142608331346015
 28    -0.0006193678777003
 29    -0.0015870648199445
 30    -0.0049206304648197
 31    -0.0020753187145464
 32     0.0041366208927315
 33     0.0338411291494513
 34     0.0071845600570976
 35     0.0101514937263738
 36    -0.0326780673136142
 37     0.0144613632135730
 38     0.0075223351574326
 39     0.0086603165770226
 40     0.0074747229816411
 41     0.0766715149156206
 42     0.0253274102889187
 43     0.0780716585691094
 44     0.0249875991065687
 45    -0.0998001301276174
 46    -0.0258704033740775
 47    -0.1009362371918295
 48    -0.0260954799024026
 49     0.1269879029988054
 50     0.0357759827928759
 51     0.1268383284598612
 52     0.0356691145444551
 53    -0.1258981286776052
 54    -0.0354576584162316
 55    -0.1275436369272205
 56    -0.0359767925010627
 57     0.1004520934315344
 58     0.0259409483973790
 59     0.0989475172217813
 60     0.0256455226913999
 61    -0.0772814263015714
 62    -0.0246588798497349
 63    -0.0765551905140206
 64    -0.0252379540043785
 65    -0.0088658211865889
 66    -0.0074553713221913
 67    -0.0148326256173581
 68    -0.0075823952952848
 69    -0.0582320588924862
 70     0.0019046942117016
 71    -0.0049718614578338
 72    -0.0383151690844782
 73    -0.0568989575841084
 74     0.0047108983570671
 75    -0.0075412483822929
 76    -0.1406695188348040
 77     0.0697626599800388
 78     0.1216332397173284
 79    -0.0456743718561673
 80     0.0913583460255087
 81     0.0731518286262933
 82    -0.1187744642633201
 83     0.0534869976477957
 84     0.0959240075698496
 85    -0.0631676721936767
 86    -0.1401137636427779
 87     0.0681947509442264
 88     0.0953803362255184
 89    -0.0632680224288527
 90     0.1347172287990587
 91    -0.0571147004874380
 92     0.1138956007239990
 93     0.0036507195415265
 94    -0.0067276363894613
 95    -0.0092455171827540
 96    -0.2251090586892371
 97    -0.0489256296692048
 98     0.0015316199625364
 99    -0.0073029942034314
 100    -0.2634468216409184
 101     0.0900209352307326
 102    -0.2004664058046280
 103    -0.0053076827208932
 104     0.1360675261577987
 105     0.0936818041288928
 106     0.2070271123443287
 107     0.0033366547542080
 108     0.1283397534330442
 109    -0.0937767580799510
 110     0.2055887727878173
 111    -0.0037563793622565
 112     0.1285733644780391
 113    -0.0894092265837364
 114    -0.2008771755632252
 115     0.0058449200542839
 116     0.1360383282446870
 117     0.0478621241818925
 118     0.0008978213785752
 119     0.0069575573121049
 120    -0.2632140147810326
 121    -0.0030988828473401
 122    -0.0065311174057924
 123     0.0092876450844833
 124    -0.2248898776255009
 125     0.0620859141133796
 126     0.1344485353385434
 127     0.0567880530989675
 128     0.1118321385369599
 129     0.0631900126921601
 130    -0.1390422664657220
 131    -0.0675734371405293
 132     0.0952067040626653
 133    -0.0719971455133261
 134    -0.1176411307404013
 135    -0.0528693200120421
 136     0.0940199412626688
 137    -0.0685137914776923
 138     0.1205400460225303
 139     0.0450123079750306
 140     0.0913314665473426
 141     0.0559974771699538
 142     0.0035545073026485
 143     0.0072614865217841
 144    -0.1389391381566547
 145     0.0575206889172776
 146     0.0019853892918841
 147     0.0054057634350270
 148    -0.0376193589773192
 149    -0.0003999731252581
 150     0.0014092687961532
 151     0.0047836019699077
 152    -0.0020220813583784
 153    -0.0042390958513101
 154    -0.0344291595678002
 155     0.0070236715867088
 156    -0.0089108705773268
 157    -0.0337201281992372
 158    -0.0011056819438558
 159    -0.0034966407162979
 160     0.0021093177646580
 161     0.0014161690099356
 162     0.0066861903143590
 163    -0.0251562996611169
 164     0.0328863004170310
 165    -0.0097444085111678
 166    -0.0057596603377637
 167     0.0042115119716771
 168    -0.0014088818310748
 169     0.0000533626860849
 170    -0.0059700634355965
 171     0.0035149791677173
 172     0.0207691425526819
 173     0.0135657946583781
 174    -0.0149155660445827
 175    -0.0229437606091623
 176    -0.0018658546491063
 177     0.0056164499193957
 178    -0.0031935514527434
 179     0.0008129952475523
 180     0.0001050641937191
 181     0.0375560786946809
 182     0.0405113683343663
 183     0.0103468684798324
 184    -0.0148178526905031
 Sym= 181A
 Ene= 1.082360
 Spin= Alpha
 Occup= 2.000000
  1     0.0000162251573243
  2    -0.0021972630557313
  3     0.0003546251890037
  4     0.0001295424360872
  5     0.0016011709323258
  6    -0.0089206465199547
  7    -0.0123212137433986
  8    -0.0015949797595034
  9     0.0001535012041276
 10    -0.0003141879092162
 11     0.0003333099714247
 12     0.0000642902911868
 13     0.0024350241977108
 14     0.0007519254359549
 15    -0.0029693963128956
 16    -0.0053180784539384
 17     0.0037120053212145
 18     0.0005421907740040
 19     0.0005397504672210
 20     0.0014982448118325
 21    -0.0010453761183571
 22    -0.0010937909529457
 23    -0.0007287584990591
 24     0.0179857845023524
 25    -0.0175121732911851
 26     0.0071690014243330
 27     0.0064439128682567
 28    -0.0006144041935555
 29    -0.0005690519461485
 30     0.0022934601539615
 31     0.0008763346471526
 32    -0.0007419788887501
 33    -0.0046752929365130
 34    -0.0054298886572647
 35     0.0040741345059939
 36     0.0068326885122245
 37    -0.0028714700422360
 38     0.0001692505905526
 39     0.0001681979832483
 40    -0.0005109736591337
 41    -0.0001981787479103
 42     0.0001554856304130
 43    -0.0003371377904384
 44    -0.0000756077674338
 45     0.0005572854189061
 46     0.0000742466236078
 47     0.0006446753247081
 48     0.0001090353683697
 49    -0.0021182318051018
 50    -0.0005876042110670
 51    -0.0018792669295853
 52    -0.0005046547429302
 53     0.0034856167601725
 54     0.0005839815260832
 55     0.0033873471060801
 56     0.0006405972534299
 57    -0.0083745206269207
 58    -0.0022319715881238
 59    -0.0099568802287295
 60    -0.0036125076496799
 61     0.0041209452008959
 62     0.0030118489898997
 63     0.0092718320752414
 64     0.0096457295809615
 65     0.0042633657961349
 66    -0.0141469936951317
 67    -0.0840066725795957
 68     0.0057715891595150
 69    -0.0003871238343563
 70    -0.0004965876575214
 71     0.0013833835681667
 72    -0.0006404543264242
 73    -0.0005959113555163
 74     0.0005280019360288
 75     0.0004249999531351
 76     0.0002983347084594
 77    -0.0003561457110564
 78     0.0000494545661730
 79     0.0000555508880944
 80    -0.0006686016440300
 81    -0.0005982884286286
 82     0.0004123512066406
 83    -0.0000253580945486
 84    -0.0002035167060631
 85     0.0003179324717082
 86     0.0004967684066813
 87    -0.0002929484565781
 88    -0.0008411711070238
 89     0.0002163487962043
 90    -0.0007392878141302
 91     0.0003112616960680
 92    -0.0006136902176467
 93     0.0009365157890472
 94    -0.0001601092505857
 95     0.0001677340080803
 96     0.0019943155939303
 97     0.0012977876595374
 98     0.0003329457682733
 99     0.0000960505783309
 100     0.0040315549730569
 101    -0.0021889559295762
 102     0.0036389556360242
 103     0.0000742718507316
 104    -0.0026784001604964
 105    -0.0024441435283601
 106    -0.0031447953163507
 107    -0.0000576223451809
 108    -0.0030731625848158
 109     0.0021450667589188
 110    -0.0052513343201394
 111     0.0001822226780926
 112    -0.0030215743025070
 113     0.0014369486425242
 114     0.0040182736395088
 115    -0.0001070012928533
 116    -0.0042747481313151
 117     0.0025652768875961
 118    -0.0013328472590587
 119    -0.0004876018022562
 120     0.0095087520556805
 121     0.0073216950520300
 122     0.0033325262611569
 123     0.0007494257324415
 124     0.0176568602987592
 125    -0.0098899679321357
 126    -0.0122622376973042
 127    -0.0054312514699931
 128    -0.0136101544173097
 129    -0.0057114059680900
 130     0.0185203994984826
 131     0.0078823251600354
 132    -0.0051196433828694
 133     0.0023553018462930
 134     0.0118478976675924
 135     0.0109227718609087
 136    -0.0183893839055395
 137     0.0086402621942083
 138    -0.0259613143968029
 139    -0.0069366693414956
 140    -0.0049323921412707
 141    -0.0294089099132826
 142    -0.0161299560580599
 143     0.0122574667810618
 144     0.0216244190152069
 145    -0.0236322257653697
 146     0.0138448166015325
 147     0.0413873681521945
 148     0.0294998055469747
 149     0.0191556314446873
 150    -0.0177312214216928
 151     0.0661962518302161
 152    -0.0253708446128208
 153    -0.0227645759190612
 154    -0.1440022384015084
 155     0.1563455113032254
 156     0.1278777946030594
 157    -0.2116824983592810
 158    -0.0011155037622010
 159    -0.0642187569540126
 160     0.0117868411732633
 161    -0.0052127528506358
 162     0.0470185530521870
 163    -0.2464982660575431
 164     0.3490590038684677
 165    -0.0393495718262761
 166    -0.0120484983292369
 167     0.0095689863258440
 168     0.0104673648233876
 169     0.0018339718141311
 170    -0.0701696555674329
 171     0.0231746702931418
 172    -0.0940713136357824
 173     0.1532847462026288
 174     0.1164668486758628
 175    -0.0146812084133290
 176    -0.0161971329491273
 177     0.0422815779961446
 178    -0.0316952447893693
 179     0.0330027530989581
 180    -0.0201349031620571
 181     0.5288693649348984
 182     0.5106999524151958
 183     0.2132216751240930
 184    -0.1932782242457233
 Sym= 182A
 Ene= 1.082979
 Spin= Alpha
 Occup= 2.000000
  1    -0.0003126762995953
  2     0.0644233121785161
  3    -0.0101289855895165
  4    -0.0038831760735338
  5    -0.0464265892654432
  6     0.2612947494646563
  7     0.3604402837208978
  8     0.0465551860075062
  9    -0.0033299271887466
 10     0.0087030526128321
 11    -0.0099491817744107
 12    -0.0019037630917168
 13    -0.0712162551948189
 14    -0.0215656009887001
 15     0.0898646012919741
 16     0.1554062495972439
 17    -0.1106345467699465
 18    -0.0124711321804643
 19    -0.0157272093613421
 20    -0.0436579710898382
 21     0.0304499550969173
 22     0.0321086027938235
 23     0.0215472631892466
 24    -0.5262897745150130
 25     0.5120857169819014
 26    -0.2100129649115019
 27    -0.1885502454375659
 28     0.0180165698524735
 29     0.0169327720684889
 30    -0.0672384251461700
 31    -0.0256439478560743
 32     0.0212350959092432
 33     0.1330787672820846
 34     0.1600567944566977
 35    -0.1213889981349370
 36    -0.1970203864825028
 37     0.0818500436393951
 38    -0.0065412562651664
 39    -0.0070613517019467
 40     0.0137488194508049
 41    -0.0094590208075279
 42    -0.0093290982260107
 43    -0.0062821601306856
 44    -0.0025870617521195
 45     0.0100106591281528
 46     0.0036024057691275
 47     0.0086234209313523
 48     0.0022445204985048
 49    -0.0035049260059671
 50    -0.0006514528182187
 51    -0.0035850428356942
 52    -0.0006000147338220
 53     0.0020674019862122
 54     0.0005302457510729
 55     0.0023032172055960
 56     0.0006159285985993
 57    -0.0011860874500875
 58    -0.0002526847315821
 59    -0.0011981461088770
 60    -0.0003086793188032
 61     0.0006661823463647
 62     0.0002558295607544
 63     0.0008108544874956
 64     0.0004752176773737
 65     0.0002132422793486
 66    -0.0004254352600630
 67    -0.0026884920178160
 68     0.0002426908606004
 69     0.0237481513472899
 70     0.0141099507911621
 71    -0.0395164902854662
 72     0.0275285427660109
 73     0.0287022193177637
 74    -0.0158858078618914
 75    -0.0113200095439508
 76     0.0216428637329363
 77    -0.0088468654320389
 78    -0.0258031311789352
 79     0.0071061130284585
 80    -0.0047214773559886
 81    -0.0019430122310224
 82     0.0128947892099582
 83    -0.0107955384922788
 84    -0.0183026458391129
 85     0.0055173123117340
 86     0.0184033156077936
 87    -0.0078781152953800
 88    -0.0051397294999642
 89     0.0098132030731979
 90    -0.0125414955410804
 91     0.0055232124593345
 92    -0.0135332106916873
 93    -0.0073282514013199
 94     0.0031026259295903
 95    -0.0006313368761163
 96     0.0176304403427381
 97    -0.0024262433312216
 98    -0.0012268863764717
 99     0.0004848738697577
 100     0.0096202854551993
 101    -0.0015563716830123
 102     0.0042233260611889
 103     0.0001074448529883
 104    -0.0043401343516221
 105    -0.0022298882939395
 106    -0.0053689195888022
 107    -0.0001712487116898
 108    -0.0031876607362847
 109     0.0025264096954920
 110    -0.0034223483149365
 111     0.0000718895218912
 112    -0.0031952070505568
 113     0.0022305259671169
 114     0.0038200212772754
 115    -0.0000893327587778
 116    -0.0029130655655081
 117    -0.0010885771712485
 118     0.0002307509841917
 119    -0.0001205351770623
 120     0.0045659090011246
 121    -0.0004375404821780
 122     0.0000615619737180
 123    -0.0001164912367250
 124     0.0031127558741859
 125    -0.0008520279725901
 126    -0.0015359801746178
 127    -0.0006614495184466
 128    -0.0014822462405847
 129    -0.0006812343623453
 130     0.0016984306665412
 131     0.0008028004273496
 132    -0.0011551295059689
 133     0.0007156382010047
 134     0.0012091118562798
 135     0.0007375504204592
 136    -0.0013988336159200
 137     0.0009164407470358
 138    -0.0016566144338656
 139    -0.0005140430627898
 140    -0.0009676984531546
 141    -0.0013349736842423
 142    -0.0005390197624301
 143     0.0003669231973701
 144     0.0017079205129579
 145    -0.0011842081889974
 146     0.0004416620617616
 147     0.0013260801630899
 148     0.0012573660061809
 149     0.0006299352618755
 150    -0.0005912533236568
 151     0.0021821885318652
 152    -0.0008347772932095
 153    -0.0007319539550016
 154    -0.0046069830741391
 155     0.0051816508452450
 156     0.0042689492336612
 157    -0.0068559848118882
 158    -0.0000309020884259
 159    -0.0021161638798379
 160     0.0003783032755921
 161    -0.0001730443960442
 162     0.0015323378582773
 163    -0.0081289975942144
 164     0.0114873949674561
 165    -0.0012976317613181
 166    -0.0003519039315053
 167     0.0002983103372971
 168     0.0003498886049068
 169     0.0000610535043699
 170    -0.0023075361703554
 171     0.0007465052106666
 172    -0.0031839906402074
 173     0.0050367023764470
 174     0.0038877299154166
 175    -0.0003714889990894
 176    -0.0005301872387335
 177     0.0013860774783306
 178    -0.0010368124231813
 179     0.0010877088938716
 180    -0.0006705717101101
 181     0.0173902791572415
 182     0.0167857066024006
 183     0.0070162926144380
 184    -0.0063516875328109
 Sym= 183A
 Ene= 1.105348
 Spin= Alpha
 Occup= 2.000000
  1     0.0000405682395478
  2     0.0000083075750775
  3     0.0000919437938819
  4     0.0000754341478789
  5     0.0000303553179208
  6     0.0008217749628572
  7     0.0006300175775006
  8     0.0003931964431151
  9     0.0004765539937898
 10    -0.0000386408423010
 11     0.0000326217459275
 12    -0.0000024005647571
 13    -0.0000562501584435
 14     0.0000796195742800
 15    -0.0002888066004764
 16     0.0001189957390992
 17     0.0003585352923661
 18     0.0000599507399572
 19     0.0000255015908491
 20    -0.0000768340435541
 21    -0.0000726946643605
 22    -0.0000525230062743
 23     0.0000791627424968
 24     0.0001818043101482
 25     0.0000578778717075
 26     0.0001839846225418
 27     0.0002959146701457
 28    -0.0000639123078051
 29    -0.0000621443597711
 30    -0.0000556944913069
 31    -0.0000204130825861
 32    -0.0000862904720217
 33    -0.0005390308035157
 34     0.0001629886560739
 35     0.0004771034940639
 36     0.0008162604467510
 37    -0.0001093219540245
 38    -0.0000235579458280
 39    -0.0001957358194848
 40    -0.0000140838294160
 41     0.0000154001748835
 42     0.0000171621576082
 43    -0.0000800504865779
 44     0.0000450863918516
 45    -0.0000138049117235
 46    -0.0000396130070878
 47    -0.0000799990350937
 48    -0.0000144990309355
 49     0.0003123673538388
 50     0.0001188108119698
 51    -0.0002269383563463
 52    -0.0000365560462518
 53    -0.0001955044349565
 54    -0.0001394171045190
 55     0.0012442695198249
 56    -0.0003027767506197
 57    -0.0075542993513383
 58    -0.0000697081908706
 59    -0.0001299975716160
 60     0.0003534803288292
 61     0.0765494811545671
 62    -0.0142339540698692
 63     0.0020609184034127
 64    -0.0049541233132633
 65     0.1095792433926398
 66     0.0082138589271971
 67     0.0643577644332245
 68     0.0164578015849905
 69    -0.0000933739260084
 70     0.0000313097302471
 71     0.0001433799636535
 72    -0.0001118732217425
 73    -0.0000819025307540
 74    -0.0000265505758592
 75     0.0000675348813049
 76    -0.0000880519318481
 77     0.0000807178162188
 78     0.0000340062540006
 79     0.0000007479779873
 80     0.0001274262513054
 81     0.0000894209136342
 82    -0.0000450256511143
 83     0.0000625078377740
 84     0.0000695325970166
 85    -0.0000255390209544
 86    -0.0000089357773393
 87     0.0000017382472877
 88     0.0001935221359640
 89    -0.0001270412532081
 90     0.0001645172301744
 91    -0.0000847827835045
 92     0.0000549260069284
 93    -0.0001150488052653
 94     0.0002113903842773
 95    -0.0000682108640353
 96    -0.0002815663576376
 97     0.0000710377814380
 98    -0.0006150119870242
 99    -0.0000217569531820
 100    -0.0004161291762865
 101     0.0002140630024590
 102    -0.0007311308984205
 103    -0.0000041047760088
 104     0.0000522512330527
 105     0.0006851581098026
 106    -0.0004641705831060
 107     0.0000772324516508
 108     0.0010193283415664
 109    -0.0010172358873022
 110     0.0013112238106064
 111    -0.0000624021118864
 112    -0.0003515830384054
 113    -0.0002553768572171
 114     0.0012799094405954
 115    -0.0003164042916967
 116     0.0016225020810519
 117    -0.0008635781831639
 118     0.0025258762469725
 119     0.0004373617999406
 120    -0.0013870484206807
 121     0.0025500749735855
 122    -0.0063540737046300
 123    -0.0033673242815408
 124    -0.0014263518808845
 125     0.0069346366757282
 126    -0.0098444775403259
 127    -0.0018764241267667
 128     0.0089719917307492
 129     0.0028084577351093
 130    -0.0033041584622315
 131    -0.0011027285117236
 132    -0.0022266917671292
 133    -0.0187177490710101
 134     0.0343381370921945
 135    -0.0068847897072468
 136     0.0089412023654599
 137     0.0049635621616076
 138     0.0050948412000008
 139    -0.0002905742673626
 140     0.0032869098630824
 141     0.0299761971488061
 142     0.0073033549097439
 143    -0.0296995077312368
 144     0.0031943079652989
 145     0.0284606178721817
 146     0.0110705958156305
 147    -0.0806396045230490
 148    -0.0453309814330584
 149    -0.0343566933315830
 150     0.0332224019524147
 151     0.0354217712293313
 152    -0.0125704805323350
 153     0.0470395701580157
 154     0.2927878341857097
 155     0.1043174019405504
 156    -0.2541251473731571
 157     0.4406063543264708
 158     0.0225636734795925
 159    -0.0087963647280877
 160    -0.0504749020982150
 161     0.0415587066170568
 162    -0.0142324007892888
 163    -0.4729755585229640
 164     0.3722641678402542
 165    -0.2212867907151657
 166     0.2653583328379253
 167    -0.0211721117631073
 168    -0.0173794603763036
 169     0.0015777547881332
 170    -0.0356848743192748
 171    -0.0433108915675730
 172     0.1522424866533673
 173     0.0750178421190504
 174    -0.1913419163586560
 175     0.0366870544619012
 176     0.0129300271566318
 177     0.0453508325807337
 178     0.0381840006836613
 179    -0.0270337741861767
 180    -0.0451087202348883
 181    -0.0663155345709955
 182     0.0647145018107184
 183    -0.0886826212337546
 184     0.1498190473250420
 Sym= 184A
 Ene= 1.105856
 Spin= Alpha
 Occup= 2.000000
  1    -0.0226740999403358
  2    -0.0069303573905491
  3    -0.0509612539291452
  4    -0.0415217231977370
  5    -0.0159528985038451
  6    -0.4642529124145983
  7    -0.3606822385851973
  8    -0.2190076907348148
  9    -0.2657925562694199
 10     0.0217703953681481
 11    -0.0174815404360412
 12     0.0014948534504655
 13     0.0333858489600530
 14    -0.0440644853704646
 15     0.1527816081292360
 16    -0.0699520052391454
 17    -0.1925231825069653
 18    -0.0381807378353468
 19    -0.0136049917379785
 20     0.0437842723458464
 21     0.0393900626646174
 22     0.0279293824241964
 23    -0.0447557232814558
 24    -0.0833839365675557
 25    -0.0483675029322308
 26    -0.0949242458360234
 27    -0.1569927167441252
 28     0.0347026194370617
 29     0.0335982060548779
 30     0.0332762931488227
 31     0.0119430494109750
 32     0.0478949710100434
 33     0.2991563624778667
 34    -0.0982296779776257
 35    -0.2573687236374023
 36    -0.4496438420541181
 37     0.0664940388650183
 38     0.0163595336980596
 39     0.1098985039459146
 40     0.0088994870952199
 41     0.0020267920182655
 42    -0.0050196501929602
 43     0.0788902009800952
 44    -0.0139936798128420
 45    -0.0002529531283804
 46     0.0003183548296361
 47    -0.0078910487996227
 48    -0.0001402717898294
 49     0.0013233843407337
 50    -0.0003035687131778
 51    -0.0001683630955423
 52    -0.0001357054873349
 53    -0.0002548062165584
 54    -0.0000431948639654
 55     0.0003105946020943
 56     0.0001174483935912
 57    -0.0001031730931193
 58    -0.0000137198875698
 59    -0.0000072059029695
 60    -0.0000379036245162
 61     0.0001946378615794
 62    -0.0000058094144175
 63     0.0000192934398190
 64    -0.0000016482720426
 65     0.0001947053853725
 66     0.0000163276081067
 67     0.0001245130178284
 68     0.0000346035275504
 69     0.0285821100828351
 70    -0.0105106236549177
 71    -0.0819608640688389
 72     0.0460882526401056
 73     0.0301775987212410
 74    -0.0074405977572944
 75    -0.0301297404146159
 76    -0.0036579861016142
 77     0.0052172485522660
 78    -0.0050075056748124
 79    -0.0002685526619322
 80    -0.0031509773007771
 81    -0.0192790064385811
 82    -0.0356787636539301
 83    -0.0065560772900987
 84    -0.0090582891823377
 85     0.0027289523306086
 86     0.0031831524371606
 87    -0.0010423258549738
 88     0.0024806222456400
 89     0.0070589255916426
 90     0.0104484661884324
 91    -0.0021111141984929
 92    -0.0091523203600541
 93     0.0027667140389048
 94     0.0065854278366890
 95    -0.0034964897557242
 96     0.0011968925448501
 97    -0.0008366149963188
 98    -0.0026313868482609
 99     0.0004521909386843
 100     0.0012996480611758
 101    -0.0002320876990610
 102    -0.0013836520373536
 103    -0.0003262749541051
 104    -0.0016313809635869
 105    -0.0010321435922433
 106    -0.0013142140851995
 107    -0.0000579654482506
 108     0.0004200723463199
 109     0.0006749705233670
 110     0.0005197278381856
 111     0.0000768507056420
 112    -0.0010185075763115
 113     0.0001871446629311
 114     0.0007292650943061
 115    -0.0000062129651775
 116    -0.0000126184474043
 117     0.0000828193081209
 118     0.0006434848562833
 119    -0.0000206954162678
 120     0.0003815918969314
 121    -0.0001017440330294
 122    -0.0002428801943168
 123    -0.0000816610273394
 124     0.0002629999326962
 125    -0.0001010352090783
 126    -0.0001979405352293
 127    -0.0000908942622416
 128    -0.0000130692170386
 129    -0.0000115750866706
 130    -0.0000128936417500
 131    -0.0000071887274359
 132    -0.0002001999896342
 133     0.0000172212876713
 134     0.0001666823495312
 135     0.0000369721424808
 136    -0.0000313839603887
 137     0.0000960748652409
 138    -0.0000101763575620
 139     0.0000022833094124
 140    -0.0001132493494097
 141     0.0000276156598325
 142     0.0000548614190693
 143    -0.0000384175033219
 144     0.0000946126118373
 145     0.0000106241822285
 146     0.0000067256881316
 147    -0.0001467544171243
 148    -0.0000528091030653
 149    -0.0000592920468668
 150     0.0000571089250614
 151     0.0000660436155009
 152    -0.0000230127933505
 153     0.0000829548082931
 154     0.0005161271100477
 155     0.0001960663898656
 156    -0.0004357061070209
 157     0.0007711056697590
 158     0.0000399933294752
 159    -0.0000190822423142
 160    -0.0000888176475621
 161     0.0000726330663868
 162    -0.0000237759839516
 163    -0.0008454427399379
 164     0.0006724134292327
 165    -0.0003907904295820
 166     0.0004695029199946
 167    -0.0000378543001200
 168    -0.0000296160035361
 169     0.0000030511782188
 170    -0.0000661394748061
 171    -0.0000761764430810
 172     0.0002560008062792
 173     0.0001378376763990
 174    -0.0003267882496845
 175     0.0000729768911954
 176     0.0000219074386207
 177     0.0000815921235544
 178     0.0000657722858944
 179    -0.0000457221366485
 180    -0.0000806973522243
 181    -0.0000898795107684
 182     0.0001388302003956
 183    -0.0001451691158110
 184     0.0002524926376929
