26
Generated by Multiwfn | theta=0.0 phi=0.0
H  -1.67827965  0.41594880 -5.36240006
H  -0.86059228 -0.99757541 -5.36129015
N  -1.67753624 -0.52656537 -5.02831554
C  -1.67767763 -0.52543407 -3.55841541
H  -1.67937469  1.63506007 -3.41211533
H  -1.67661702 -2.68571591 -3.40931534
C  -1.67873835  0.68308216 -2.86181545
C  -1.67661702 -1.73310172 -2.85991549
C  -1.67845547  0.68407207 -1.46671545
C  -1.67739486 -1.73232388 -1.46521532
H  -1.67887973  1.63696920 -0.91771548
H  -1.67718267 -2.68430161 -0.91461539
C  -1.67788982 -0.52338337 -0.76831537
C  -1.67859697 -0.52281773  0.77168452
H  -1.67993140  1.63788856  0.91818451
H  -1.67719173 -2.68302870  0.92068457
C  -1.67979389  0.68598133  1.46878457
C  -1.67846053 -1.73027312  1.46978473
C  -1.68014758  0.68647634  2.86368465
C  -1.67831926 -1.72970737  2.86488485
H  -1.68106281  1.63901997  3.41338443
H  -1.67775750 -2.68175602  3.41508460
C  -1.67902135 -0.52140337  3.56178474
N  -1.67902135 -0.52055479  5.03178453
H  -1.67990018  0.42249546  5.36456775
H  -2.49504272 -0.99249863  5.36538540
