24
 energy: -39.058328426961 gnorm: 0.000149243374 xtb: 6.7.1 (edcfbbe)
C           -0.73630725179214       -0.00002680225819       -0.00003513418928
C            0.73632380324669       -0.00004315787426       -0.00004030638709
C           -1.45109795618729        1.13872100817403        0.38374818525504
C            1.45113515690334        1.13869204565661       -0.38381766386213
C           -1.45114057100960       -1.13874942714902       -0.38379434484480
C            1.45113657815460       -1.13878458267171        0.38370751813231
C           -2.83386490692484        1.14135767646135        0.38641466150737
C            2.83390391266614        1.14133119412552       -0.38642340138187
C           -2.83390472880271       -1.14136148178119       -0.38636186264667
C            2.83389896979047       -1.14139478826363        0.38633333838068
C           -3.54349701153948       -0.00001678645470        0.00009390832180
C            3.54351451485369       -0.00002278879346       -0.00000905991305
C           -4.96529897681607       -0.00006918901879        0.00014898755602
C            4.96531642784739       -0.00015454381444       -0.00005709987740
C           -6.16861487135235       -0.00035302547727        0.00005169947174
C            6.16862207562658       -0.00016057363831       -0.00014002506860
H           -0.91747427172416        2.02704278079511        0.70372820983335
H            0.91752501809959        2.02702922277971       -0.70377719831886
H           -0.91756188605336       -2.02712463089061       -0.70370057403445
H            0.91754420568189       -2.02715034472509        0.70361855104139
H           -3.37430416149956        2.03025901501925        0.69156647936234
H            3.37434880915333        2.03021974542449       -0.69160542739080
H           -3.37437098645823       -2.03025076253343       -0.69150695987913
H            3.37435909692912       -2.03030073635077        0.69143593271202
