34
 energy: -53.895982686418 gnorm: 0.000093381151 xtb: 6.7.1 (edcfbbe)
C            1.40872904556296       -0.00034319653256       -0.00015681220018
C           -1.40873342923547       -0.00026544106355        0.00024366463706
C            2.88129546531952       -0.00027554291043       -0.00027975583731
C           -2.88129966738973       -0.00017656853591        0.00028880743497
C            0.69175676667494        1.19915674093841       -0.00172521416254
C           -0.69170311709369        1.19919867125494        0.00174639313531
C            0.69170465094781       -1.19980971966460        0.00164260073693
C           -0.69176380584523       -1.19976774510723       -0.00144081040648
C            3.59608282598699        0.95858192276040       -0.72460495741381
C           -3.59616944828466        0.95875714582737        0.72443023681009
C            3.59637484243867       -0.95892729201567        0.72402012152860
C           -3.59630130838848       -0.95895883263551       -0.72391871913172
C            4.97885584734192        0.96063266018773       -0.72777348864021
C           -4.97894544014432        0.96072871781725        0.72752806573250
C            4.97915175952876       -0.96041968624301        0.72731787537388
C           -4.97907509202795       -0.96053485837819       -0.72728248181852
C            5.68864843548862        0.00027113463391       -0.00015710023356
C           -5.68865564378201        0.00022148820555        0.00002249515651
C            7.11045615573241        0.00059209604065        0.00002400404261
C           -7.11046318334025        0.00047204130822       -0.00025269453700
C            8.31375445624630        0.00068614361920        0.00016423809306
C           -8.31376153526897        0.00072459140732       -0.00062629728214
H            1.22232183821360        2.14499303762257        0.01274775049919
H           -1.22220707147221        2.14506840471962       -0.01278928966964
H            1.22220678715170       -2.14568108779739       -0.01296791681455
H           -1.22232158199198       -2.14560628023842        0.01324868449698
H            3.06250498665943        1.69984226013099       -1.30948667343036
H           -3.06266629244479        1.70014324106884        1.30922219242853
H            3.06303313391860       -1.70042653240255        1.30881549423934
H           -3.06289185929463       -1.70050140643172       -1.30859532712380
H            5.51917834372390        1.70746080975882       -1.29844589145494
H           -5.51934237924332        1.70761097346280        1.29806041216416
H            5.51972754984263       -1.70703117077852        1.29803537165882
H           -5.51957497461459       -1.70726113548960       -1.29792031880608
