44
 energy: -68.733637341134 gnorm: 0.000126127236 xtb: 6.7.1 (edcfbbe)
C            0.73625545238063        0.00028318273991        0.00059776401107
C           -0.73625484373781        0.00032461435641        0.00053449822975
C            3.55373972171905        0.00019261199137        0.00036476144321
C           -3.55373983038195        0.00027332567572        0.00014522902669
C            1.45342331122576        1.13884415277627        0.37774328720135
C           -1.45332292469192        1.13891703664499       -0.37668465593401
C            1.45328878819466       -1.13835613207461       -0.37654400908310
C           -1.45338773110750       -1.13828261006580        0.37760494575157
C            5.02632035783156        0.00003225056991        0.00023636776644
C           -5.02632004126954        0.00015380218360       -0.00014610869372
C            2.83689878357839        1.13784243921632        0.38067070488283
C           -2.83679652507502        1.13794236311590       -0.37990199608217
C            2.83675712224192       -1.13746230816784       -0.37966024159732
C           -2.83685800073073       -1.13736159349405        0.38042948448188
C            5.74142353499174        0.67852455999721        0.99178597463403
C           -5.74107514859485        0.67864222402997       -0.99195957832928
C            5.74092363829666       -0.67847185432151       -0.99166967194057
C           -5.74127274607736       -0.67839511704564        0.99146889956133
C            7.12419925996412        0.67899138669798        0.99517853033040
C           -7.12386259392735        0.67913695682486       -0.99582985473429
C            7.12370648951618       -0.67912535759849       -0.99566946653477
C           -7.12404403035729       -0.67902256922109        0.99498997402400
C            7.83356190019046       -0.00007313757578       -0.00041688281000
C           -7.83356253361611        0.00003449843198       -0.00049088225927
C            9.25537358625527        0.00006495489049       -0.00079802517710
C           -9.25537424799864        0.00002379029692       -0.00044871182591
C           10.45867272157057       -0.00026574565770       -0.00085726259677
C          -10.45867331752893       -0.00029594508269       -0.00051256774826
H            0.92308106802942        2.03181019183856        0.69024803468598
H           -0.92290408245521        2.03188305205044       -0.68905885445712
H            0.92284569149130       -2.03131523190977       -0.68889643980201
H           -0.92302158379528       -2.03124112539641        0.69008740276059
H            3.36763754161712        2.03990899705291        0.66516686179283
H           -3.36745334376727        2.04003418631657       -0.66447411407227
H            3.36737660756074       -2.03960340177043       -0.66414918257400
H           -3.36755802825843       -2.03947949544895        0.66483953043033
H            5.20802551185753        1.19534011741557        1.78213405985260
H           -5.20738680246895        1.19537305891058       -1.78217359546027
H            5.20711290506136       -1.19508665125603       -1.78187872927688
H           -5.20775454965656       -1.19512792856981        1.78179195669657
H            7.66489901548030        1.20512694201461        1.77376328858037
H           -7.66428686957350        1.20529139006024       -1.77459749719057
H            7.66398654908825       -1.20534988480369       -1.77449736780054
H           -7.66459916361176       -1.20526278326810        1.77361194815042
