28
 energy: -37.141577152337 gnorm: 0.000188955597 xtb: 6.7.1 (edcfbbe)
C            0.73719822712902        0.00004661315156       -0.01209623829544
C           -0.73720925499132       -0.00070756899983       -0.01222363229038
C            1.45121283424185        1.13245793474790        0.38597514144077
C           -1.45335503368578        1.13036260013387       -0.40889080180138
C            1.45358175168351       -1.13091225493875       -0.40873446371858
C           -1.45145888397457       -1.13302858127554        0.38573733226561
C            3.54790279941090        0.00172693764891       -0.00832096928594
C           -3.54791046509254       -0.00171153147746       -0.00831030437491
C            2.83637613534207        1.13119855219371        0.38970414724643
C           -2.83904008605547        1.12803123246736       -0.40788719099838
C            2.83924393706054       -1.12823946504847       -0.40781213263592
C           -2.83659917386850       -1.13142980310207        0.38954324857595
C            5.05217312422563       -0.00105476244805        0.01486990411908
C           -5.05217583188908        0.00106081009809        0.01512968459627
H            0.91834246268808        2.01819681004729        0.71472261995053
H           -0.92262406934994        2.01596528739332       -0.74137355933130
H            0.92303483779915       -2.01665002503008       -0.74115325895738
H           -0.91876891912627       -2.01889700083462        0.71446024735785
H            3.37128209867363        2.02036972557886        0.70713139654104
H           -3.37507047796987        2.01628026236114       -0.72604789814541
H            3.37550982529152       -2.01635359000038       -0.72591256116275
H           -3.37174823678894       -2.02045807468299        0.70696718181635
H            5.45141820144519       -0.73714677050016       -0.68319564845775
H            5.44580395635458        0.98214448919953       -0.24513839543252
H            5.40828321493407       -0.25357478184338        1.01649191102358
H           -5.45148513675957        0.74604055949024       -0.67338018098341
H           -5.44589093435739       -0.97871961767109       -0.25745913332536
H           -5.40812690237044        0.24050201334107        1.02000355426331
