38
 energy: -51.979250436348 gnorm: 0.000317445494 xtb: 6.7.1 (edcfbbe)
C            1.40810463851552       -0.00134093177218       -0.00827592967349
C           -1.40815420417806       -0.00259492427218       -0.00925933612194
C            2.88175088635840       -0.00047511581061       -0.00622460265575
C           -2.88183732397495       -0.00259675604285       -0.00803446719387
C            0.69133628853709        1.19782121309889       -0.00498895939697
C           -0.69253519646469        1.19720487743121       -0.00968314454559
C            0.69240048677310       -1.20112599207009       -0.01280594250020
C           -0.69152485092450       -1.20177408647521       -0.00903553516074
C            3.59528493742597        0.93837846062545        0.74294219777674
C           -3.59767882462789        0.93350618750385       -0.75681031041964
C            3.59896217494604       -0.93681654384274       -0.75345009053303
C           -3.59643406616763       -0.93914127184301        0.74292803911857
C            5.69259382634775        0.00363122424507       -0.00439712762983
C           -5.69249798016729       -0.00125401769896       -0.00399195085307
C            4.98012392713000        0.93774087749097        0.74488995310901
C           -4.98357998500044        0.93181830241601       -0.75522983720679
C            4.98485236453583       -0.93247861551292       -0.75294285663206
C           -4.98128958304472       -0.93567499133678        0.74606427967613
C            7.19683075917718        0.00199246626603        0.01389478281691
C           -7.19670059963999        0.00402079630748        0.01613984566379
H            1.22266868286610        2.14341268305578       -0.01606215604501
H           -1.22492583868486        2.14216939813305        0.00421503291454
H            1.22462217123993       -2.14621570491874       -0.00145286745289
H           -1.22302207682648       -2.14723426584712       -0.02361760515157
H            3.06204900006872        1.66486259729249        1.34657027709234
H           -3.06686657352537        1.65868982998270       -1.36390532598858
H            3.06928530670145       -1.66392413488320       -1.35946622856129
H           -3.06392733525727       -1.66563582983809        1.34726040052365
H            5.51495942223870        1.67263332141495        1.33778024922707
H           -5.51913120059587        1.66433690395565       -1.35042040895491
H            5.52134476018901       -1.66527062746604       -1.34687188260656
H           -5.51713794099268       -1.66847519808113        1.34047341779115
H            7.59717043843017       -0.57006118299477       -0.82324273066802
H            7.58419717456043        1.02041712380840       -0.03799064890523
H            7.55836404318646       -0.44876265497040        0.94102299299232
H           -7.55581393994555        0.45532689562803        0.94393435279738
H           -7.59667225598249        0.57747467914007       -0.82022066581031
H           -7.58677151322704       -1.01338499211858       -0.03563521083214
