48
 energy: -66.816932340605 gnorm: 0.000096848737 xtb: 6.7.1 (edcfbbe)
C           -0.73648386282140       -0.00070527630827        0.00372130227141
C            0.73646680537898        0.00040796718937        0.00364706422719
C           -3.55219321042261       -0.00192856708133       -0.00034853191379
C            3.55217099607303        0.00179255446255       -0.00034249429211
C           -5.02575172461342       -0.00188359847670       -0.00332120484966
C            5.02573010519808        0.00187160433173       -0.00330438538401
C           -1.45331615329803        1.13012698700712        0.40254965295993
C            1.45115274182091        1.13215467347635       -0.39645776926942
C           -1.45122735460154       -1.13240946169100       -0.39639324911932
C            1.45335910371688       -1.13040891722430        0.40241128182990
C           -2.83707724208741        1.12899418539691        0.40161785701920
C            2.83491687517478        1.13235257997279       -0.39942017634577
C           -2.83499433932191       -1.13250637642171       -0.39949178788210
C            2.83712134133433       -1.12920499512846        0.40146403963363
C           -5.73994429906807        1.13510710226222       -0.38731399657882
C            5.74194502954110        1.13921525748979        0.37664273872534
C           -5.74212323463690       -1.13917642626913        0.37653514143130
C            5.74008587457772       -1.13501125482699       -0.38742087284005
C           -7.83636769567909       -0.00191651747905       -0.01166824191820
C            7.83635141734491        0.00233835661374       -0.01168571126105
C           -7.12536243501124        1.13314861697352       -0.39248257125659
C            7.12709174290826        1.13720075423880        0.37448509360669
C           -7.12724080082686       -1.13694721483229        0.37440471979906
C            7.12547627870060       -1.13284635480696       -0.39257204203504
C           -9.34057011531950        0.00234046542858        0.00410074366816
C            9.34055319515828       -0.00219758705321        0.00403997173566
H           -0.92188511579207        2.01345727909750        0.73995244247999
H            0.91793052039289        2.01503007481995       -0.73222513201760
H           -0.91804617350861       -2.01527792556908       -0.73229976780239
H            0.92197393356422       -2.01376416614296        0.73986849862795
H           -3.36964053028206        2.01164710639105        0.73895759130882
H            3.36564188972289        2.01553712615015       -0.73829911291476
H           -3.36575842677719       -2.01568508383527       -0.73825976555437
H            3.36973796612166       -2.01182782706985        0.73883151503887
H           -5.20760897736932        2.02470675597052       -0.70627838583375
H            5.21115713422703        2.02952327249603        0.69618730847061
H           -5.21144136019068       -2.02954819442279        0.69610028149579
H            5.20786270822051       -2.02468162382515       -0.70634326374786
H           -7.65982802962664        2.02560696511905       -0.70125428904541
H            7.66359674187545        2.03030695962571        0.67779664455267
H           -7.66391380309380       -2.02996049170138        0.67771802531666
H            7.66010537697487       -2.02520419847127       -0.70132867169118
H           -9.73407385530468       -0.98397588837484       -0.24362301708032
H           -9.70110564297156        0.27002666769677        1.00017460457035
H           -9.73541766175026        0.72899774704533       -0.70625673105796
H            9.73523708339048       -0.72016379341227       -0.71521878066771
H            9.73428408805912        0.98698717084853       -0.23147967634915
H            9.70102309489799       -0.28244648968008        0.99668310993908
