84
Generated by alignment script
Au      1.44200000     -2.49700000     -7.06400000
Au     -1.44200000      2.49700000     -7.06400000
Au     -1.44200000     -2.49700000     -7.06400000
Au      1.44200000      2.49700000     -7.06400000
Au     -2.88400000      0.00000000     -7.06400000
Au      2.88400000      0.00000000     -7.06400000
Au      0.00000000      0.00000000     -7.06400000
Au     -1.44200000     -4.16200000     -4.70900000
Au     -1.44200000      0.83200000     -4.70900000
Au      2.88400000     -1.66500000     -4.70900000
Au      1.44200000      0.83200000     -4.70900000
Au      0.00000000     -1.66500000     -4.70900000
Au      1.44200000     -4.16200000     -4.70900000
Au      5.76800000     -1.66500000     -4.70900000
Au     -2.88400000      3.33000000     -4.70900000
Au     -5.76800000     -1.66500000     -4.70900000
Au      0.00000000      3.33000000     -4.70900000
Au      2.88400000      3.33000000     -4.70900000
Au     -2.88400000     -1.66500000     -4.70900000
Au     -4.32600000      0.83200000     -4.70900000
Au     -4.32600000     -4.16200000     -4.70900000
Au     -1.44200000      5.82700000     -4.70900000
Au      4.32600000      0.83200000     -4.70900000
Au      4.32600000     -4.16200000     -4.70900000
Au      1.44200000      5.82700000     -4.70900000
Au      0.00000000      1.66500000     -2.35500000
Au      1.44200000     -0.83200000     -2.35500000
Au     -1.44200000     -0.83200000     -2.35500000
Au      0.00000000     -0.00000000      0.00000000
H      -0.89100000      2.49600000      0.34200000
H       0.89200000      2.42700000      0.35400000
C      -0.01900000      2.02300000      0.77900000
C      -0.02300000      2.04500000      2.22900000
H      -2.10800000      2.55200000      2.39100000
H       2.06000000      1.54200000      2.39100000
C      -1.19500000      2.33600000      2.93500000
C       1.15400000      1.77800000      2.93800000
C      -1.18400000      2.37400000      4.31200000
C       1.15700000      1.79500000      4.31300000
H      -2.09100000      2.64200000      4.84200000
H       2.06900000      1.54900000      4.84500000
C      -0.01200000      2.09400000      5.02500000
C      -0.00800000      2.09400000      6.48200000
H      -2.09000000      1.55000000      6.66100000
H       2.07100000      2.64000000      6.66600000
C      -1.17800000      1.79600000      7.19300000
C       1.16400000      2.37300000      7.19500000
C      -1.17600000      1.77900000      8.56800000
C       1.17400000      2.33600000      8.57200000
H      -2.08200000      1.54400000      9.11500000
H       2.08700000      2.55100000      9.11700000
C       0.00100000      2.04600000      9.27800000
C      -0.00400000      2.02400000     10.72800000
H      -0.91900000      2.41900000     11.15300000
H       0.86300000      2.50500000     11.16500000
Au      0.00000000      0.00000000     11.50400000
Au      1.44200000     -0.83200000     13.85900000
Au     -0.00000000      1.66500000     13.85900000
Au     -1.44200000     -0.83200000     13.85900000
Au     -4.32600000     -4.16200000     16.21400000
Au      1.44200000      5.82700000     16.21400000
Au     -1.44200000      5.82700000     16.21400000
Au     -1.44200000      0.83200000     16.21400000
Au     -0.00000000     -1.66500000     16.21400000
Au     -2.88400000     -1.66500000     16.21400000
Au     -4.32600000      0.83200000     16.21400000
Au     -0.00000000      3.33000000     16.21400000
Au      1.44200000     -4.16200000     16.21400000
Au      1.44200000      0.83200000     16.21400000
Au      5.76800000     -1.66500000     16.21400000
Au     -1.44200000     -4.16200000     16.21400000
Au     -2.88400000      3.33000000     16.21400000
Au      2.88400000     -1.66500000     16.21400000
Au      2.88400000      3.33000000     16.21400000
Au      4.32600000      0.83200000     16.21400000
Au      4.32600000     -4.16200000     16.21400000
Au     -5.76800000     -1.66500000     16.21400000
Au     -1.44200000      2.49700000     18.56800000
Au      1.44200000      2.49700000     18.56800000
Au     -1.44200000     -2.49700000     18.56800000
Au     -2.88400000      0.00000000     18.56800000
Au      2.88400000      0.00000000     18.56800000
Au     -0.00000000      0.00000000     18.56800000
Au      1.44200000     -2.49700000     18.56800000
