34
 energy: -67.657897904874 gnorm: 0.000702115421 xtb: 6.7.0 (08769fc)
Au           1.44188000000000       -0.83247000000000       -2.35457998000000
Au           0.00000000000000        1.66494000000000       -2.35457998000000
Au          -1.44188000000000       -0.83247000000000       -2.35457998000000
Au           0.00000000000000       -0.00000000000000        0.00000000000000
C           -0.01204643585762        2.09427745840718        5.02454638539230
C           -0.00832253963291        2.09428008729367        6.48247065304894
C            1.15735146657011        1.79459514377759        4.31331218939547
C            1.16382309539686        2.37295317884382        7.19526225860283
C           -1.18421018329381        2.37392831155029        4.31221001017154
C           -1.17826474912327        1.79552412483298        7.19320853158391
C           -0.02324324270505        2.04520237120177        2.22919246779780
C            0.00130913603904        2.04631693141196        9.27778603512058
C            1.15389659556582        1.77821626278470        2.93848123722378
C            1.17400987871235        2.33585795594194        8.57239505782278
C           -1.19526376902041        2.33596051814739        2.93509261048787
C           -1.17561580097002        1.77945057026118        8.56801977292464
C           -0.01893698391359        2.02252438086328        0.77916852524152
C           -0.00396904481354        2.02381442080867       10.72755311290875
H            2.06937634485003        1.54876563995095        4.84464867833381
H            2.07127850906601        2.63952319919225        6.66568532062371
H           -2.09107818784278        2.64193118990892        4.84211324678086
H           -2.09014166641120        1.55010533601128        6.66147658499576
H            2.06001494456627        1.54161667929985        2.39139174241963
H            2.08695926621463        2.55136839514853        9.11674575255853
H           -2.10843980501823        2.55199079817779        2.39124520008246
H           -2.08212106497334        1.54357693384639        9.11470579470892
H            0.89219623753784        2.42687624249557        0.35374273476257
H           -0.89056949480901        2.49615152016317        0.34243530766163
H           -0.91893955125169        2.41900156745907       11.15264431090710
H            0.86303474759433        2.50513110041827       11.16489343382381
Au           0.00000000000001        0.00000000000002       11.50434912000005
Au          -0.00000000000004        1.66493998000000       13.85892904999997
Au           1.44187996999991       -0.83245997999997       13.85892904999999
Au          -1.44187997000009       -0.83245998000005       13.85892905000000
