92
Generated by alignment script
Au      1.44200000      2.49700000     -7.06400000
Au     -1.44200000     -2.49700000     -7.06400000
Au     -1.44200000      2.49700000     -7.06400000
Au      1.44200000     -2.49700000     -7.06400000
Au      0.00000000      0.00000000     -7.06400000
Au      2.88400000      0.00000000     -7.06400000
Au     -2.88400000      0.00000000     -7.06400000
Au     -2.88400000      3.33000000     -4.70900000
Au     -1.44200000      5.82700000     -4.70900000
Au      1.44200000      5.82700000     -4.70900000
Au      2.88400000     -1.66500000     -4.70900000
Au     -1.44200000      0.83200000     -4.70900000
Au      1.44200000     -4.16200000     -4.70900000
Au      0.00000000     -1.66500000     -4.70900000
Au     -1.44200000     -4.16200000     -4.70900000
Au     -5.76800000     -1.66500000     -4.70900000
Au     -2.88400000     -1.66500000     -4.70900000
Au      2.88400000      3.33000000     -4.70900000
Au     -4.32600000      0.83200000     -4.70900000
Au     -4.32600000     -4.16200000     -4.70900000
Au      4.32600000     -4.16200000     -4.70900000
Au      0.00000000      3.33000000     -4.70900000
Au      1.44200000      0.83200000     -4.70900000
Au      4.32600000      0.83200000     -4.70900000
Au      5.76800000     -1.66500000     -4.70900000
Au     -1.44200000     -0.83200000     -2.35500000
Au      0.00000000      1.66500000     -2.35500000
Au      1.44200000     -0.83200000     -2.35500000
Au      0.00000000      0.00000000      0.00000000
C       0.00000000      0.00000000      2.00000000
C      -0.00000000     -0.00000000      3.20300000
C      -0.00000000     -0.00000000      4.62500000
H       1.29800000     -1.70800000      4.79400000
H      -1.29800000      1.70700000      4.79500000
C      -0.72800000      0.96000000      5.33500000
C       0.72700000     -0.96100000      5.33500000
C       0.72400000     -0.96000000      6.71700000
C      -0.72500000      0.95800000      6.71800000
H      -1.30900000      1.69900000      7.25100000
H       1.30900000     -1.70100000      7.25100000
C      -0.00000000     -0.00100000      7.43200000
C       0.00000000     -0.00100000      8.90500000
H       0.01300000      2.14400000      9.09100000
H      -0.01300000     -2.14600000      9.09200000
C       0.00200000     -1.20100000      9.62200000
C      -0.00200000      1.19800000      9.62200000
C       0.00200000      1.19800000     11.00500000
C      -0.00100000     -1.20000000     11.00600000
H      -0.01200000      2.14400000     11.53600000
H       0.01400000     -2.14600000     11.53600000
C       0.00100000     -0.00100000     11.72200000
C       0.00100000     -0.00100000     13.19500000
H       1.31000000      1.69900000     13.37600000
H      -1.30800000     -1.70100000     13.37700000
C      -0.72400000     -0.96000000     13.91000000
C       0.72500000      0.95800000     13.91000000
C       0.72800000      0.96000000     15.29300000
C      -0.72700000     -0.96100000     15.29300000
H      -1.29700000     -1.70800000     15.83300000
H       1.29900000      1.70700000     15.83300000
C       0.00100000     -0.00000000     16.00200000
C       0.00000000     -0.00000000     17.42400000
C       0.00000000      0.00000000     18.62800000
Au      0.00000000      0.00000000     20.62800000
Au      1.44200000     -0.83200000     22.98200000
Au      0.00000000      1.66500000     22.98200000
Au     -1.44200000     -0.83200000     22.98200000
Au      2.88400000      3.33000000     25.33700000
Au     -2.88400000     -1.66500000     25.33700000
Au     -4.32600000      0.83200000     25.33700000
Au      4.32600000     -4.16200000     25.33700000
Au      0.00000000      3.33000000     25.33700000
Au      1.44200000     -4.16200000     25.33700000
Au     -1.44200000      0.83200000     25.33700000
Au      0.00000000     -1.66500000     25.33700000
Au     -2.88400000      3.33000000     25.33700000
Au     -1.44200000      5.82700000     25.33700000
Au      1.44200000      0.83200000     25.33700000
Au      4.32600000      0.83200000     25.33700000
Au     -4.32600000     -4.16200000     25.33700000
Au     -5.76800000     -1.66500000     25.33700000
Au      5.76800000     -1.66500000     25.33700000
Au     -1.44200000     -4.16200000     25.33700000
Au      1.44200000      5.82700000     25.33700000
Au      2.88400000     -1.66500000     25.33700000
Au      2.88400000      0.00000000     27.69100000
Au     -2.88400000      0.00000000     27.69100000
Au      0.00000000      0.00000000     27.69100000
Au     -1.44200000      2.49700000     27.69100000
Au      1.44200000     -2.49700000     27.69100000
Au      1.44200000      2.49700000     27.69100000
Au     -1.44200000     -2.49700000     27.69100000
