42
EM assembled from temp_aligned.xyz with template 4au-em.xyz; bond_L=2.000 bond_R=2.000
Au      1.44188000     -0.83247000     -2.35458000
Au      0.00000000      1.66494000     -2.35458000
Au     -1.44188000     -0.83247000     -2.35458000
Au      0.00000000      0.00000000      0.00000000
C       0.00000724     -0.00104531      8.90502542
C       0.00054167     -0.00097407     11.72248787
C      -0.00018572     -0.00097425      7.43245900
C       0.00065682     -0.00088860     13.19505410
C      -0.00152430      1.19845298      9.62200054
C       0.00201308      1.19849170     11.00546026
C       0.00183797     -1.20051349      9.62204695
C      -0.00117967     -1.20047471     11.00551555
C      -0.72454268      0.95788655      6.71770830
C       0.72483446      0.95804179     13.90989167
C       0.72407795     -0.95962602      6.71734297
C      -0.72351893     -0.95967084     13.91008796
C      -0.72777695      0.95994049      5.33493543
C       0.72799803      0.96001015     15.29266752
C       0.72730995     -0.96111522      5.33456590
C      -0.72681695     -0.96125006     15.29286190
C      -0.00019653     -0.00042108      4.62510603
C       0.00052398     -0.00049703     16.00241009
C      -0.00008302     -0.00009683      3.20329831
C       0.00031639     -0.00024977     17.42421764
C       0.00000000      0.00000000      2.00000000
C       0.00000000      0.00000000     18.62751601
H       0.01292562      2.14429047      9.09143697
H      -0.01249519      2.14436024     11.53596709
H      -0.01279996     -2.14638360      9.09154332
H       0.01353286     -2.14631451     11.53607044
H      -1.30939732      1.69914700      7.25131566
H       1.30960276      1.69942776     13.37636243
H       1.30889696     -1.70112784      7.25065516
H      -1.30822261     -1.70121083     13.37670459
H      -1.29847332      1.70677121      4.79464180
H       1.29855780      1.70688984     15.83303906
H       1.29800002     -1.70772678      4.79396125
H      -1.29743082     -1.70797627     15.83338718
Au      0.00000000      0.00000000     20.62751601
Au      0.00000000      1.66494000     22.98209601
Au      1.44188000     -0.83246000     22.98209601
Au     -1.44188000     -0.83246000     22.98209601
