134
Junction assembled from temp_aligned.xyz with template junction_pyramid_elec.xyz; bond_L=2.000 bond_R=2.000; right electrode translated dz=9.3095; template anchors idx 0/19
Au      5.76751697      3.32987696      1.17728948
Au      1.44187899      5.82728496      1.17728948
Au      4.32563794      5.82728496      1.17728948
Au      1.44187899      0.83246895      1.17728948
Au      7.20939596      5.82728496      1.17728948
Au      0.00000000      3.32987696      1.17728948
Au      8.65127000      3.32987696      1.17728948
Au      2.88375798      3.32987696      1.17728948
Au      7.20939596      0.83246895      1.17728948
Au      2.88375798      8.32469200      1.17728948
Au      0.00000000      8.32469200      1.17728948
Au      8.65127000      8.32469200      1.17728948
Au      5.76751697      8.32469200      1.17728948
Au      4.32563794      0.83246895      1.17728948
Au      2.88375798      1.66493800      3.53186845
Au      5.76751697      1.66493800      3.53186845
Au      7.20939596      9.15716197      3.53186845
Au      5.76751697      6.65975396      3.53186845
Au      0.00000000      1.66493800      3.53186845
Au      8.65127000      1.66493800      3.53186845
Au      0.00000000      6.65975396      3.53186845
Au      8.65127000      6.65975396      3.53186845
Au      4.32563794      9.15716197      3.53186845
Au      2.88375798      6.65975396      3.53186845
Au      7.20939596      4.16234599      3.53186845
Au      1.44187899      4.16234599      3.53186845
Au      4.32563794      4.16234599      3.53186845
Au      1.44187899      9.15716197      3.53186845
Au      4.32563794      2.49740800      5.88644748
Au      2.88375798      0.00000000      5.88644748
Au      2.88375798      9.98963000      5.88644748
Au      1.44187899      2.49740800      5.88644748
Au      4.32563794      7.49222299      5.88644748
Au      7.20939596      7.49222299      5.88644748
Au      5.76751697      0.00000000      5.88644748
Au      5.76751697      9.98963000      5.88644748
Au      5.76751697      4.99481499      5.88644748
Au      0.00000000      4.99481499      5.88644748
Au      8.65127000      4.99481499      5.88644748
Au      7.20939596      2.49740800      5.88644748
Au      0.00000000      0.00000000      5.88644748
Au      0.00000000      9.98963000      5.88644748
Au      8.65127000      0.00000000      5.88644748
Au      8.65127000      9.98963000      5.88644748
Au      2.88375798      4.99481499      5.88644748
Au      1.44187899      7.49222299      5.88644748
Au      2.88375798      3.32987696      8.24102644
Au      4.32563794      5.82728496      8.24102644
Au      5.76751697      3.32987696      8.24102644
Au      4.32563794      4.16234599     10.59560542
C       4.32564518      4.16130068     19.50063084
C       4.32617961      4.16137192     22.31809329
C       4.32545222      4.16137174     18.02806442
C       4.32629476      4.16145739     23.79065952
C       4.32411364      5.36079897     20.21760596
C       4.32765102      5.36083769     21.60106568
C       4.32747591      2.96183250     20.21765237
C       4.32445827      2.96187128     21.60112097
C       3.60109526      5.12023254     17.31331372
C       5.05047240      5.12038778     24.50549709
C       5.04971589      3.20271997     17.31294839
C       3.60211901      3.20267515     24.50569338
C       3.59786099      5.12228648     15.93054085
C       5.05363597      5.12235614     25.88827294
C       5.05294789      3.20123077     15.93017132
C       3.59882099      3.20109593     25.88846732
C       4.32544141      4.16192491     15.22071145
C       4.32616192      4.16184896     26.59801551
C       4.32555492      4.16224916     13.79890373
C       4.32595433      4.16209622     28.01982306
C       4.32563794      4.16234599     12.59560542
C       4.32563794      4.16234599     29.22312143
H       4.33856356      6.30663646     19.68704239
H       4.31314275      6.30670623     22.13157251
H       4.31283798      2.01596239     19.68714874
H       4.33917080      2.01603148     22.13167586
H       3.01624062      5.86149299     17.84692108
H       5.63524070      5.86177375     23.97196785
H       5.63453490      2.46121815     17.84626058
H       3.01741533      2.46113516     23.97231001
H       3.02716462      5.86911720     15.39024722
H       5.62419574      5.86923583     26.42864448
H       5.62363796      2.45461921     15.38956667
H       3.02820712      2.45436972     26.42899260
Au      4.32563794      4.16234599     31.22312143
Au      5.76751697      3.32987696     33.57770041
Au      4.32563794      5.82728496     33.57770041
Au      2.88375798      3.32987696     33.57770041
Au      2.88375798      9.98963000     35.93227936
Au      1.44187899      2.49740800     35.93227936
Au      4.32563794      7.49222299     35.93227936
Au      7.20939596      7.49222299     35.93227936
Au      5.76751697      0.00000000     35.93227936
Au      5.76751697      9.98963000     35.93227936
Au      5.76751697      4.99481499     35.93227936
Au      0.00000000      4.99481499     35.93227936
Au      8.65127000      4.99481499     35.93227936
Au      7.20939596      2.49740800     35.93227936
Au      0.00000000      0.00000000     35.93227936
Au      0.00000000      9.98963000     35.93227936
Au      8.65127000      0.00000000     35.93227936
Au      8.65127000      9.98963000     35.93227936
Au      2.88375798      4.99481499     35.93227936
Au      1.44187899      7.49222299     35.93227936
Au      4.32563794      2.49740800     35.93227936
Au      2.88375798      0.00000000     35.93227936
Au      1.44187899      4.16234599     38.28685839
Au      4.32563794      4.16234599     38.28685839
Au      2.88375798      1.66493800     38.28685839
Au      1.44187899      9.15716197     38.28685839
Au      5.76751697      1.66493800     38.28685839
Au      7.20939596      9.15716197     38.28685839
Au      5.76751697      6.65975396     38.28685839
Au      0.00000000      1.66493800     38.28685839
Au      8.65127000      1.66493800     38.28685839
Au      0.00000000      6.65975396     38.28685839
Au      8.65127000      6.65975396     38.28685839
Au      4.32563794      9.15716197     38.28685839
Au      2.88375798      6.65975396     38.28685839
Au      7.20939596      4.16234599     38.28685839
Au      8.65127000      8.32469200     40.64143737
Au      5.76751697      8.32469200     40.64143737
Au      4.32563794      0.83246895     40.64143737
Au      4.32563794      5.82728496     40.64143737
Au      5.76751697      3.32987696     40.64143737
Au      1.44187899      0.83246895     40.64143737
Au      7.20939596      5.82728496     40.64143737
Au      0.00000000      3.32987696     40.64143737
Au      8.65127000      3.32987696     40.64143737
Au      2.88375798      3.32987696     40.64143737
Au      1.44187899      5.82728496     40.64143737
Au      7.20939596      0.83246895     40.64143737
Au      2.88375798      8.32469200     40.64143737
Au      0.00000000      8.32469200     40.64143737
