Junction assembled from temp_aligned.xyz with template junction_pyramid_elec.xyz; bond_L=2.000 bond_R=2.000; right electrode translated dz=9.3095; template anchors idx 0/19
1.0
  8.651270000000    0.000000000000    0.000000000000
  0.000000000000    9.989630000000    0.000000000000
  0.000000000000    0.000000000000   59.464147890000
Au  C  H  Au
40  22  12  40
Direct
  0.666667087029   0.333333362697   0.168168561473
  0.166666742571   0.583333412749   0.168168561473
  0.500000339834   0.583333412749   0.168168561473
  0.166666742571   0.083333311644   0.168168561473
  0.833333829600   0.583333412749   0.168168561473
  0.000000000000   0.333333362697   0.168168561473
  0.333333485141   0.333333362697   0.168168561473
  0.833333829600   0.083333311644   0.168168561473
  0.333333485141   0.833333366701   0.168168561473
  0.000000000000   0.833333366701   0.168168561473
  0.666667087029   0.833333366701   0.168168561473
  0.500000339834   0.083333311644   0.168168561473
  0.333333485141   0.166666633299   0.207765176467
  0.666667087029   0.166666633299   0.207765176467
  0.833333829600   0.916666780451   0.207765176467
  0.666667087029   0.666666729398   0.207765176467
  0.000000000000   0.166666633299   0.207765176467
  0.000000000000   0.666666729398   0.207765176467
  0.500000339834   0.916666780451   0.207765176467
  0.333333485141   0.666666729398   0.207765176467
  0.833333829600   0.416666682350   0.207765176467
  0.166666742571   0.416666682350   0.207765176467
  0.500000339834   0.416666682350   0.207765176467
  0.166666742571   0.916666780451   0.207765176467
  0.500000339834   0.250000050052   0.247361792471
  0.333333485141   0.000000000000   0.247361792471
  0.166666742571   0.250000050052   0.247361792471
  0.500000339834   0.750000049051   0.247361792471
  0.833333829600   0.750000049051   0.247361792471
  0.666667087029   0.000000000000   0.247361792471
  0.666667087029   0.499999998999   0.247361792471
  0.000000000000   0.499999998999   0.247361792471
  0.833333829600   0.250000050052   0.247361792471
  0.000000000000   0.000000000000   0.247361792471
  0.333333485141   0.499999998999   0.247361792471
  0.166666742571   0.750000049051   0.247361792471
  0.333333485141   0.333333362697   0.286958407298
  0.500000339834   0.583333412749   0.286958407298
  0.666667087029   0.333333362697   0.286958407298
  0.500000339834   0.416666682350   0.326555022461
  0.500001176706   0.416562042838   0.476309550794
  0.500062951451   0.416569174234   0.523690410522
  0.499978872466   0.416569156215   0.451545613662
  0.500076261636   0.416577730106   0.548454344459
  0.499824146050   0.536636388935   0.488366817995
  0.500233031682   0.536640264955   0.511632260604
  0.500212790723   0.296490710867   0.488367598466
  0.499863981820   0.296494592893   0.511633190408
  0.416250476520   0.512554773300   0.439525754211
  0.583783929989   0.512570313415   0.560475664791
  0.583696485025   0.320604463829   0.439519610509
  0.416368811747   0.320599977176   0.560478965771
  0.415876627362   0.512760380515   0.416271862260
  0.584149606936   0.512767353746   0.583729606856
  0.584070071793   0.320455389239   0.416265647927
  0.415987593729   0.320441891241   0.583732875716
  0.499977622939   0.416624530638   0.404334763601
  0.500060906665   0.416616927754   0.595665245307
  0.499990743556   0.416656989298   0.380424428207
  0.500036911344   0.416641679422   0.619575577842
  0.500000339834   0.416666682350   0.360188734050
  0.500000339834   0.416666682350   0.639811273008
  0.501494411803   0.631318323101   0.479444406949
  0.498556021255   0.631325307344   0.520553717462
  0.498520792901   0.201805511315   0.479446195422
  0.501564602654   0.201812427487   0.520555455484
  0.348647148916   0.586757766804   0.448499352235
  0.651377277556   0.586785871949   0.551503380499
  0.651295694158   0.246377308269   0.448488244701
  0.348782933604   0.246369000654   0.551509134555
  0.349909853698   0.587520979255   0.407185822197
  0.650100591011   0.587532854570   0.592816957119
  0.650036117241   0.245716729248   0.407174377486
  0.350030356237   0.245691754349   0.592822811403
  0.500000339834   0.416666682350   0.673444984597
  0.666667087029   0.333333362697   0.713041599760
  0.500000339834   0.583333412749   0.713041599760
  0.333333485141   0.333333362697   0.713041599760
  0.166666742571   0.250000050052   0.752638214419
  0.500000339834   0.750000049051   0.752638214419
  0.833333829600   0.750000049051   0.752638214419
  0.666667087029   0.000000000000   0.752638214419
  0.666667087029   0.499999998999   0.752638214419
  0.000000000000   0.499999998999   0.752638214419
  0.833333829600   0.250000050052   0.752638214419
  0.000000000000   0.000000000000   0.752638214419
  0.333333485141   0.499999998999   0.752638214419
  0.166666742571   0.750000049051   0.752638214419
  0.500000339834   0.250000050052   0.752638214419
  0.333333485141   0.000000000000   0.752638214419
  0.166666742571   0.416666682350   0.792234830422
  0.500000339834   0.416666682350   0.792234830422
  0.333333485141   0.166666633299   0.792234830422
  0.166666742571   0.916666780451   0.792234830422
  0.666667087029   0.166666633299   0.792234830422
  0.833333829600   0.916666780451   0.792234830422
  0.666667087029   0.666666729398   0.792234830422
  0.000000000000   0.166666633299   0.792234830422
  0.000000000000   0.666666729398   0.792234830422
  0.500000339834   0.916666780451   0.792234830422
  0.333333485141   0.666666729398   0.792234830422
  0.833333829600   0.416666682350   0.792234830422
  0.666667087029   0.833333366701   0.831831445586
  0.500000339834   0.083333311644   0.831831445586
  0.500000339834   0.583333412749   0.831831445586
  0.666667087029   0.333333362697   0.831831445586
  0.166666742571   0.083333311644   0.831831445586
  0.833333829600   0.583333412749   0.831831445586
  0.000000000000   0.333333362697   0.831831445586
  0.333333485141   0.333333362697   0.831831445586
  0.166666742571   0.583333412749   0.831831445586
  0.833333829600   0.083333311644   0.831831445586
  0.333333485141   0.833333366701   0.831831445586
  0.000000000000   0.833333366701   0.831831445586
