38
AtomType X Y Z
S  -0.56644961  -0.12634814  -9.00190749
N  -0.30179270  -1.10644713  3.38002564
N  -0.71493204  1.22049475  3.36744250
N  -0.67615239  1.25270778  7.50796524
N  -0.25795655  -1.08183990  7.51777078
C  -0.54800750  0.00844085  -2.97560505
C  -0.53399426  0.03223810  -0.15911378
C  -0.55466970  -0.00532727  -4.44750023
C  -0.52433335  0.04303975  1.30994245
C  -0.01769809  1.09230585  -2.26997883
C  -1.07206329  -1.06286016  -2.24648149
C  -0.01126215  1.10517110  -0.88673377
C  -1.06476850  -1.05233212  -0.86331260
C  -0.33181346  -1.19105912  -5.15502851
C  -0.78445043  1.16508853  -5.17507341
C  -0.30914724  -1.11667184  2.05786192
C  -0.72860232  1.21273326  2.04522023
C  -0.50291880  0.06145989  3.99757212
C  -0.48890709  0.07100578  5.45569516
C  -0.33595908  -1.20566975  -6.53753199
C  -0.79590650  1.15350142  -6.55974100
C  -0.57039914  -0.03221015  -7.25630399
C  -0.69096368  1.24499976  6.18671921
C  -0.27183414  -1.09344862  6.19553820
C  -0.45997720  0.09004788  8.12143339
H  0.41647296  1.92677802  -2.80977847
H  -1.51155940  -1.90623477  -2.76775984
H  0.42715087  1.94843790  -0.36413550
H  -1.49806984  -1.88655313  -0.32228000
H  -0.13038096  -2.11085086  -4.61682753
H  -0.97988833  2.09594475  -4.65384591
H  -0.12135987  -2.07256618  1.57663473
H  -0.92476970  2.16184345  1.55407490
H  -0.15390117  -2.13259027  -7.06951423
H  -0.98475461  2.07425368  -7.10151222
H  -0.86700382  2.19076782  5.68215644
H  -0.10696103  -2.04612225  5.70033047
S  -0.44227670  0.11869796  9.85310467
