    40
 Generated by Multiwfn
H      -0.53697597      1.29613018     -9.21892070
S      -0.52078264     -0.01408541     -9.00408077
C      -0.52634286      0.05184029     -7.25718879
H      -0.48881790     -2.09174942     -7.10364913
H      -0.56426197      2.19567346     -7.06908607
C      -0.51009142     -1.15571892     -6.55708885
C      -0.54645943      1.24764943     -6.54192543
C      -0.51790910     -1.16378700     -5.17454814
C      -0.54763782      1.23528134     -5.15721845
H      -0.48751401     -2.11303091     -4.65084505
H      -0.58127379      2.17771506     -4.62144374
C      -0.53552794      0.03140138     -4.44830179
C      -0.50779008      0.04682266     -2.97561120
H      -0.57366871     -2.09867930     -2.80212521
H      -0.44653007      2.19016504     -2.77544140
C      -0.53740942     -1.15688765     -2.26557826
C      -0.49283748      1.24202454     -2.25092577
C      -0.54973214     -1.16599011     -0.88243514
C      -0.50692713      1.23467516     -0.86769723
H      -0.59537023     -2.11355519     -0.35667049
H      -0.47161716      2.17589044     -0.32984945
C      -0.53464132      0.03006920     -0.15916249
C      -0.52086514      0.05366784      1.31067049
H      -0.57722008     -2.10322284      1.54293501
H      -0.46670329      2.20512342      1.58921349
C      -0.56363981     -1.13691675      2.03957080
C      -0.48083961      1.22840094      2.06495380
N      -0.56813275     -1.14925003      3.36172962
N      -0.47968164      1.21232366      3.38717126
C      -0.52418082      0.02492146      3.99829292
C      -0.52354574      0.00840785      5.45642328
H      -0.60391885     -2.14505410      5.66642904
H      -0.44378307      2.15622305      5.71750259
C      -0.56725400     -1.18703043      6.17715978
C      -0.47853440      1.18685996      6.20656204
N      -0.56506711     -1.19941651      7.49945497
N      -0.47625556      1.17047929      7.52781009
C      -0.51913595     -0.02102870      8.12222099
S      -0.51387071     -0.02401388      9.85420799
H      -0.56185150     -1.34392762      9.96548557
