42
AtomType X Y Z
S  0.02595760  0.05796343  -9.58278796
S  -0.02581909  0.05797194  9.58286232
C  0.00098654  -0.00512133  -0.73630450
C  -0.00110500  -0.00511097  0.73637767
C  0.00382722  -0.00642867  -3.55360780
C  -0.00388392  -0.00639222  3.55368166
C  0.39690815  -1.13802184  -1.45180445
C  -0.39696488  -1.13802195  1.45189688
C  -0.39290782  1.12729434  -1.45367416
C  0.39274723  1.12733217  1.45372888
C  0.00418237  -0.00798976  -5.02599384
C  -0.00418783  -0.00795307  5.02606756
C  0.39957411  -1.13814495  -2.83538084
C  -0.39959962  -1.13813208  2.83547315
C  -0.39275998  1.12618157  -2.83730616
C  0.39262754  1.12623329  2.83736120
C  0.36921427  1.13401152  -5.74596196
C  -0.36925573  1.13402513  5.74605299
C  -0.36069875  -1.15097441  -5.74178487
C  0.36078092  -1.15092072  5.74184086
C  0.37208294  1.13264508  -7.12882582
C  -0.37208008  1.13265043  7.12891705
C  -0.36469110  -1.15503924  -7.12669177
C  0.36481968  -1.15499287  7.12674734
C  0.00307369  -0.01310117  -7.83530244
C  -0.00298625  -0.01307948  7.83537568
H  0.72995825  -2.02242100  -0.91935848
H  -0.72997754  -2.02244377  0.91946703
H  -0.72689482  2.01217624  -0.92264723
H  0.72666902  2.01222826  0.92268673
H  0.73573648  -2.02283156  -3.36534008
H  -0.73570001  -2.02283136  3.36544865
H  -0.72743683  2.01049912  -3.36876961
H  0.72726550  2.01057444  3.36880844
H  0.67578451  2.03010665  -5.21745038
H  -0.67589466  2.03010580  5.21755587
H  -0.66752603  -2.04582371  -5.21119864
H  0.66764587  -2.04574835  5.21123936
H  0.66493063  2.02506227  -7.67038753
H  -0.66496267  2.02504758  7.67049348
H  -0.65913726  -2.05344221  -7.65894080
H  0.65933839  -2.05338123  7.65898175
