102
Generated by alignment script
Au     -1.44200000     -2.49700000     -7.06400000
Au      1.44200000     -2.49700000     -7.06400000
Au     -1.44200000      2.49700000     -7.06400000
Au      1.44200000      2.49700000     -7.06400000
Au      0.00000000      0.00000000     -7.06400000
Au     -2.88400000      0.00000000     -7.06400000
Au      2.88400000      0.00000000     -7.06400000
Au     -1.44200000     -4.16200000     -4.70900000
Au     -1.44200000      5.82700000     -4.70900000
Au     -1.44200000      0.83200000     -4.70900000
Au      2.88400000     -1.66500000     -4.70900000
Au      0.00000000     -1.66500000     -4.70900000
Au      1.44200000      0.83200000     -4.70900000
Au      1.44200000     -4.16200000     -4.70900000
Au      1.44200000      5.82700000     -4.70900000
Au     -5.76800000     -1.66500000     -4.70900000
Au      2.88400000      3.33000000     -4.70900000
Au      4.32600000     -4.16200000     -4.70900000
Au     -2.88400000     -1.66500000     -4.70900000
Au     -2.88400000      3.33000000     -4.70900000
Au      0.00000000      3.33000000     -4.70900000
Au     -4.32600000      0.83200000     -4.70900000
Au     -4.32600000     -4.16200000     -4.70900000
Au      4.32600000      0.83200000     -4.70900000
Au      5.76800000     -1.66500000     -4.70900000
Au     -1.44200000     -0.83200000     -2.35500000
Au      0.00000000      1.66500000     -2.35500000
Au      1.44200000     -0.83200000     -2.35500000
Au      0.00000000      0.00000000      0.00000000
C       0.00000000      0.00000000      2.00000000
C       0.00000000      0.00000000      3.20300000
C       0.00000000      0.00000000      4.62500000
H       1.77500000      1.20500000      4.79400000
H      -1.77400000     -1.20500000      4.79500000
C       0.99600000      0.67900000      5.33400000
C      -0.99500000     -0.67900000      5.33500000
C       0.99300000      0.67900000      6.71700000
C      -0.99100000     -0.67800000      6.71800000
H       1.78300000      1.19600000      7.25100000
H      -1.78100000     -1.19500000      7.25200000
C       0.00100000      0.00000000      7.43200000
C       0.00100000      0.00000000      8.90500000
H      -0.66300000     -2.03900000      9.09100000
H       0.66600000      2.04000000      9.09100000
C       0.38100000      1.13800000      9.62200000
C      -0.37900000     -1.13700000      9.62200000
C      -0.37600000     -1.13800000     11.00500000
C       0.37800000      1.13900000     11.00500000
H      -0.68800000     -2.03100000     11.53600000
H       0.69100000      2.03200000     11.53600000
C       0.00100000      0.00100000     11.72200000
C       0.00100000      0.00100000     13.19500000
H       0.69100000     -2.03100000     13.38200000
H      -0.68800000      2.03200000     13.38200000
C       0.37800000     -1.13800000     13.91200000
C      -0.37600000      1.13900000     13.91200000
C      -0.37900000      1.13800000     15.29500000
C       0.38100000     -1.13700000     15.29600000
H       0.66500000     -2.03900000     15.82600000
H      -0.66400000      2.04000000     15.82600000
C       0.00100000      0.00100000     16.01200000
C       0.00000000      0.00000000     17.48500000
H      -1.78200000      1.19600000     17.66600000
H       1.78200000     -1.19500000     17.66600000
C      -0.99100000      0.67900000     18.20000000
C       0.99200000     -0.67800000     18.20000000
C      -0.99500000      0.67900000     19.58300000
C       0.99600000     -0.67900000     19.58300000
H       1.77400000     -1.20500000     20.12300000
H      -1.77400000      1.20600000     20.12300000
C       0.00000000      0.00000000     20.29200000
C       0.00000000      0.00000000     21.71400000
C       0.00000000      0.00000000     22.91700000
Au      0.00000000      0.00000000     24.91700000
Au      0.00000000      1.66500000     27.27200000
Au     -1.44200000     -0.83200000     27.27200000
Au      1.44200000     -0.83200000     27.27200000
Au     -2.88400000     -1.66500000     29.62700000
Au     -4.32600000      0.83200000     29.62700000
Au      2.88400000      3.33000000     29.62700000
Au      2.88400000     -1.66500000     29.62700000
Au      4.32600000     -4.16200000     29.62700000
Au      4.32600000      0.83200000     29.62700000
Au     -2.88400000      3.33000000     29.62700000
Au      1.44200000      5.82700000     29.62700000
Au     -1.44200000     -4.16200000     29.62700000
Au     -1.44200000      5.82700000     29.62700000
Au      0.00000000      3.33000000     29.62700000
Au      0.00000000     -1.66500000     29.62700000
Au      1.44200000      0.83200000     29.62700000
Au      1.44200000     -4.16200000     29.62700000
Au      5.76800000     -1.66500000     29.62700000
Au     -5.76800000     -1.66500000     29.62700000
Au     -4.32600000     -4.16200000     29.62700000
Au     -1.44200000      0.83200000     29.62700000
Au     -2.88400000      0.00000000     31.98100000
Au      2.88400000      0.00000000     31.98100000
Au      0.00000000      0.00000000     31.98100000
Au     -1.44200000      2.49700000     31.98100000
Au      1.44200000      2.49700000     31.98100000
Au      1.44200000     -2.49700000     31.98100000
Au     -1.44200000     -2.49700000     31.98100000
