52
EM assembled from temp_aligned.xyz with template 4au-em.xyz; bond_L=2.000 bond_R=2.000
Au      1.44188000     -0.83247000     -2.35458000
Au      0.00000000      1.66494000     -2.35458000
Au     -1.44188000     -0.83247000     -2.35458000
Au      0.00000000      0.00000000      0.00000000
C       0.00129481      0.00056297     11.72241729
C       0.00120728      0.00060652     13.19492759
C       0.00110824      0.00046833      8.90493302
C       0.00077158      0.00055930     16.01241257
C       0.37845051      1.13912345     11.00525400
C      -0.37602533      1.13919944     13.91198781
C      -0.37583350     -1.13807793     11.00537938
C       0.37826755     -1.13799912     13.91206833
C       0.00100411      0.00030584      7.43235238
C       0.00045598      0.00044190     17.48499277
C       0.38140073      1.13811974      9.62177858
C      -0.37926547      1.13822676     15.29546136
C      -0.37892694     -1.13718611      9.62191100
C       0.38106929     -1.13707610     15.29553865
C       0.99256452      0.67879855      6.71726456
C      -0.99137025      0.67892993     18.19973056
C      -0.99088917     -0.67820073      6.71773373
C       0.99206018     -0.67810455     18.19996280
C       0.99597986      0.67926338      5.33448889
C      -0.99526331      0.67942665     19.58251794
C      -0.99486618     -0.67885623      5.33495082
C       0.99555847     -0.67873000     19.58273414
C       0.00039712      0.00019640      4.62511083
C       0.00006494      0.00032665     20.29223526
C       0.00003941      0.00033244      3.20329914
C       0.00008368      0.00031800     21.71404697
C       0.00000000      0.00000000      2.00000000
C       0.00000000      0.00000000     22.91734604
H       0.69094523      2.03209070     11.53560011
H      -0.68839208      2.03216424     13.38156253
H      -0.68819338     -2.03103671     11.53581862
H       0.69076004     -2.03095795     13.38170862
H       0.66590433      2.04018594      9.09104321
H      -0.66384764      2.04031894     15.82611218
H      -0.66340583     -2.03932838      9.09128813
H       0.66547190     -2.03919283     15.82624466
H       1.78290307      1.19561602      7.25067486
H      -1.78157622      1.19565885     17.66602844
H      -1.78110628     -1.19481590      7.25153219
H       1.78239278     -1.19483699     17.66645837
H       1.77457277      1.20539928      4.79380121
H      -1.77404062      1.20558074     20.12292862
H      -1.77368442     -1.20508267      4.79465868
H       1.77417230     -1.20496831     20.12330286
Au      0.00000000      0.00000000     24.91734604
Au      0.00000000      1.66494000     27.27192604
Au      1.44188000     -0.83246000     27.27192604
Au     -1.44188000     -0.83246000     27.27192604
