104
Generated by alignment script
Au     -2.88400000      0.00000000     -7.06400000
Au      2.88400000      0.00000000     -7.06400000
Au      1.44200000      2.49700000     -7.06400000
Au     -1.44200000     -2.49700000     -7.06400000
Au      1.44200000     -2.49700000     -7.06400000
Au     -1.44200000      2.49700000     -7.06400000
Au     -0.00000000      0.00000000     -7.06400000
Au      1.44200000      5.82700000     -4.70900000
Au      1.44200000      0.83200000     -4.70900000
Au      1.44200000     -4.16200000     -4.70900000
Au     -1.44200000     -4.16200000     -4.70900000
Au     -5.76800000     -1.66500000     -4.70900000
Au     -1.44200000      0.83200000     -4.70900000
Au     -1.44200000      5.82700000     -4.70900000
Au      2.88400000     -1.66500000     -4.70900000
Au     -2.88400000      3.33000000     -4.70900000
Au     -0.00000000      3.33000000     -4.70900000
Au      0.00000000     -1.66500000     -4.70900000
Au      4.32600000      0.83200000     -4.70900000
Au      4.32600000     -4.16200000     -4.70900000
Au      2.88400000      3.33000000     -4.70900000
Au     -2.88400000     -1.66500000     -4.70900000
Au     -4.32600000      0.83200000     -4.70900000
Au     -4.32600000     -4.16200000     -4.70900000
Au      5.76800000     -1.66500000     -4.70900000
Au      1.44200000     -0.83200000     -2.35500000
Au     -0.00000000      1.66500000     -2.35500000
Au     -1.44200000     -0.83200000     -2.35500000
Au     -0.00000000     -0.00000000      0.00000000
H      -0.82300000      2.49700000      0.38600000
H       0.95700000      2.40200000      0.42300000
C       0.03400000      1.99800000      0.82300000
C       0.00400000      1.98400000      2.27500000
H      -2.11000000      2.35900000      2.40800000
H       2.10900000      1.58900000      2.46000000
C      -1.19400000      2.19200000      2.96400000
C       1.18400000      1.76700000      2.99500000
C      -1.20700000      2.21000000      4.34300000
C       1.16700000      1.77500000      4.37100000
H      -2.13400000      2.40900000      4.86800000
H       2.08200000      1.58300000      4.92000000
C      -0.02700000      2.00500000      5.06300000
C      -0.02900000      2.03100000      6.52500000
H       1.92600000      2.92600000      6.66700000
H      -1.98600000      1.15100000      6.72000000
C       1.08100000      2.52500000      7.21500000
C      -1.12900000      1.55900000      7.24400000
C       1.09900000      2.52800000      8.59500000
C      -1.11900000      1.58000000      8.62400000
H       1.95900000      2.92100000      9.12600000
H      -1.96800000      1.19800000      9.18000000
C      -0.00100000      2.05700000      9.30800000
C       0.01800000      2.05700000     10.77300000
H       1.98500000      1.20000000     10.90300000
H      -1.94200000      2.92200000     10.95300000
C       1.13600000      1.58200000     11.45800000
C      -1.08300000      2.52900000     11.48500000
C       1.14400000      1.56100000     12.83800000
C      -1.06600000      2.52600000     12.86500000
H       2.00100000      1.15300000     13.36300000
H      -1.91100000      2.92700000     13.41200000
C       0.04300000      2.03200000     13.55600000
C       0.03900000      2.00500000     15.01800000
H      -2.07000000      1.58300000     15.15700000
H       2.14600000      2.40900000     15.21600000
C      -1.15600000      1.77500000     15.70700000
C       1.21800000      2.21000000     15.74000000
C      -1.17500000      1.76700000     17.08300000
C       1.20300000      2.19200000     17.11900000
H      -2.10200000      1.58900000     17.61700000
H       2.11700000      2.35800000     17.67700000
C       0.00300000      1.98400000     17.80600000
C      -0.02900000      1.99800000     19.25800000
H      -0.95200000      2.40300000     19.65600000
H       0.82800000      2.49600000     19.69600000
Au     -0.00000000     -0.00000000     20.08100000
Au     -1.44200000     -0.83200000     22.43600000
Au      1.44200000     -0.83200000     22.43600000
Au     -0.00000000      1.66500000     22.43600000
Au      2.88400000     -1.66500000     24.79000000
Au     -2.88400000      3.33000000     24.79000000
Au     -1.44200000      5.82700000     24.79000000
Au     -2.88400000     -1.66500000     24.79000000
Au     -4.32600000     -4.16200000     24.79000000
Au     -4.32600000      0.83200000     24.79000000
Au      5.76800000     -1.66500000     24.79000000
Au     -5.76800000     -1.66500000     24.79000000
Au      4.32600000      0.83200000     24.79000000
Au      4.32600000     -4.16200000     24.79000000
Au      2.88400000      3.33000000     24.79000000
Au      1.44200000      5.82700000     24.79000000
Au     -1.44200000      0.83200000     24.79000000
Au      1.44200000     -4.16200000     24.79000000
Au     -1.44200000     -4.16200000     24.79000000
Au     -0.00000000     -1.66500000     24.79000000
Au      0.00000000      3.33000000     24.79000000
Au      1.44200000      0.83200000     24.79000000
Au     -2.88400000      0.00000000     27.14500000
Au      2.88400000      0.00000000     27.14500000
Au      1.44200000     -2.49700000     27.14500000
Au     -1.44200000      2.49700000     27.14500000
Au     -0.00000000      0.00000000     27.14500000
Au     -1.44200000     -2.49700000     27.14500000
Au      1.44200000      2.49700000     27.14500000
