54
 energy: -97.334168040674 gnorm: 0.000418761039 xtb: 6.7.0 (08769fc)
Au           1.44187999999999       -0.83247000000000       -2.35457998000000
Au          -0.00000000000001        1.66494000000000       -2.35457998000000
Au          -1.44188000000000       -0.83247000000001       -2.35457998000000
Au          -0.00000000000001       -0.00000000000010        0.00000000000006
C           -0.00123378238841        2.05655883133708        9.30835749142199
C            0.01835054396239        2.05716597127307       10.77253545301151
C           -0.02869143020479        2.03061118643880        6.52473518023885
C            0.04311103971974        2.03164808769552       13.55619134164851
C           -0.02700585519807        2.00495783277812        5.06320525074755
C            0.03924048215438        2.00530430207617       15.01770385415093
C           -1.11879163133879        1.58025601592660        8.62399946691295
C           -1.08269874565500        2.52916848605109       11.48530099559217
C            1.09916079915987        2.52839043109285        8.59451307295627
C            1.13552577812462        1.58161559418484       11.45799315497668
C           -1.12899249136312        1.55911620336503        7.24369160708853
C           -1.06579435901639        2.52556475868754       12.86490105211695
C            1.08090286610972        2.52455312986783        7.21489121565397
C            1.14436548244075        1.56068029369474       12.83835125965495
C           -1.20672297502847        2.21042842582099        4.34311577464556
C           -1.15576331892765        1.77524485977265       15.70728465373876
C            1.16680005146828        1.77526639493144        4.37147293318523
C            1.21769249985659        2.21044865935695       15.73992092398840
C            0.00430192517420        1.98449858896663        2.27458338633686
C            0.00296826455520        1.98415995074528       17.80626267407222
C           -1.19413605232826        2.19213960481246        2.96445830893217
C           -1.17495578519082        1.76713507797984       17.08326542136484
C            1.18353504071186        1.76743402416107        2.99543422158153
C            1.20265887644614        2.19177303595566       17.11857031919018
C            0.03361210909973        1.99800579406561        0.82270937369840
C           -0.02915133251263        1.99782045421120       19.25808373876144
H           -1.96804519479430        1.19835743860326        9.17978221412019
H           -1.94159622476422        2.92200328983756       10.95263549378125
H            1.95850321566752        2.92147224609855        9.12627985756675
H            1.98546215862102        1.19993550642862       10.90310359235980
H           -1.98602825257901        1.15138043439468        6.71960059409719
H           -1.91108022487310        2.92734548246674       13.41185475774446
H            1.92557727302261        2.92639450405720        6.66703140435441
H            2.00102327610989        1.15330540790706       13.36334440230634
H           -2.13420533652750        2.40909076556056        4.86843252030229
H           -2.06979957242230        1.58279035294004       15.15718964625546
H            2.08183127515201        1.58284500680657        4.91992509223050
H            2.14610942640043        2.40920718619860       15.21629344003543
H           -2.10983688641761        2.35896691969477        2.40757088625491
H           -2.10181813806390        1.58862233390192       17.61745283579515
H            2.10947166737299        1.58911543901434        2.45958210616795
H            2.11737841246601        2.35845414839988       17.67711079923291
H           -0.82347657064556        2.49732949596946        0.38591225721229
H            0.95651934170898        2.40181642197304        0.42304260279413
H           -0.95236549615165        2.40278265605258       19.65587621849006
H            0.82765238045144        2.49622065251818       19.69649427393853
Au          -0.00000000000001       -0.00000000000016       20.08112385000002
Au           0.00000000000003        1.66493999999975       22.43570383000000
Au           1.44187999999975       -0.83246000000022       22.43570383000002
Au          -1.44188000000040       -0.83246000000001       22.43570383000000
